
variable systemNsize equal 10
variable rndSeed equal 1234
variable Nrun equal 500000
variable Nstab equal 5000
variable NdumpStats equal 10
variable NdumpFrames equal 1000
variable Text equal 298.0
variable Pext equal 1.0

units real
    # g/mol, A, fs, Kcal/mol, K, atm, g/cm^3
atom_style full
read_data SPCE.data
  orthogonal box = (0 0 0) to (3.1 3.1 3.1)
  1 by 2 by 3 MPI processor grid
  reading atoms ...
  3 atoms
  scanning bonds ...
  2 = max bonds/atom
  scanning angles ...
  1 = max angles/atom
  reading bonds ...
  2 bonds
  reading angles ...
  1 angles
  2 = max # of 1-2 neighbors
  1 = max # of 1-3 neighbors
  1 = max # of 1-4 neighbors
  2 = max # of special neighbors
  special bonds CPU = 0.000633955 secs
  read_data CPU = 0.00391293 secs

replicate ${systemNsize} ${systemNsize} ${systemNsize}
replicate 10 ${systemNsize} ${systemNsize}
replicate 10 10 ${systemNsize}
replicate 10 10 10
  orthogonal box = (0 0 0) to (31 31 31)
  1 by 2 by 3 MPI processor grid
  3000 atoms
  2000 bonds
  1000 angles
  2 = max # of 1-2 neighbors
  1 = max # of 1-3 neighbors
  1 = max # of 1-4 neighbors
  2 = max # of special neighbors
  special bonds CPU = 0.000519991 secs
  replicate CPU = 0.00218511 secs

include SPCE.long
# Original model from Berendsen et al, J Phys Chem 91:6269 (1987)
# Charges and geometry are specified in the ".data" file.

mass 1 1.00794 # H
mass 2 15.9994 # O

pair_style lj/cut/coul/long 10.0
    # LJ_Rcut (Coul_Rcut)
pair_modify tail yes
    # assumtions and approximations:
    # 1) 3d bulk homogeneous liquid (+)
    # 2) RDF is unity beyond the cutoff
    # 3) It's computed at the begining of the run
    # 4) atoms don't feel additional energy but it's added to the PE etc
kspace_style pppm 1.0e-5
    # accuracy - desired relative error in forces

pair_coeff 1 1 0.00000 0.000
pair_coeff 1 2 0.00000 0.000
    # TODO - I would put here the sizes of H and O atoms instead of one big LJ repulsion from the O atom. What "e" to choose is still a question.
pair_coeff 2 2 0.65 3.166
    # epsilon, sigma, [LJ_Rcut, [Coul_Rcut]]
    # distance between H and O is 1.0 so 3.166 > 1.0 accounts for the size of a molecule as a whole
    # I guess the major part in forces inside a molecule are indeed due to OH and HOH (angle) bondings, so computing LJ and Coul for them would be practically a waste of time so it may be ommitted. So I see only an optimizational reason to set LJ coefs to 0 for H atoms inside a molecule. However here (as far as I understand) we set all LJ coefs to 0. I understand LJ is a short-rage potential so its contribution can be neglegible compared to Coul, but it's not obvious for me why it actually is.
    # TODO - there might be a more correct way to ommit unnecessary interaction by using special_bond

bond_style harmonic
    # E = k(r-r0)^2
bond_coeff 1 0.0 1.0
    # bondID k r0
    # ? - how does k=0 make sense?
    # Is this to formaly bond atoms but actual bonding is done by rattle?

angle_style harmonic
angle_coeff 1 0.0 109.47
    # ? - same, how does k=0 make sense?


velocity all create ${Text} ${rndSeed}
velocity all create 298 ${rndSeed}
velocity all create 298 1234

fix removeMomentum all momentum 1 linear 1 1 1 angular
    # 1 - adjust the momentum every 1 timesteps
    # linear 1/0 1/0 1/0 - zero the P_x/y/z
    # angular - zero angular momentum (TODO - add "angular" here?)
    # scale - scale velocities after the adjustment so T is conserved (TODO - add "scale" here?)

fix stab_iso all npt temp ${Text} ${Text} $(50.0*dt) iso ${Pext} ${Pext} $(500.0*dt)
fix stab_iso all npt temp 298 ${Text} $(50.0*dt) iso ${Pext} ${Pext} $(500.0*dt)
fix stab_iso all npt temp 298 298 $(50.0*dt) iso ${Pext} ${Pext} $(500.0*dt)
fix stab_iso all npt temp 298 298 50 iso ${Pext} ${Pext} $(500.0*dt)
fix stab_iso all npt temp 298 298 50 iso 1 ${Pext} $(500.0*dt)
fix stab_iso all npt temp 298 298 50 iso 1 1 $(500.0*dt)
fix stab_iso all npt temp 298 298 50 iso 1 1 500
    # Tstart,Tstop = external temperature at start/end of run
    # Tdamp = temperature damping parameter (time units)
    # temp - for thermostat, iso - for barostat

fix stab_constrain all rattle 1.0e-5 100 0 b 1 a 1
  0 = # of size 2 clusters
  0 = # of size 3 clusters
  0 = # of size 4 clusters
  1000 = # of frozen angles
  find clusters CPU = 0.000355005 secs
    # fix ID group-ID shake tol iter N constraint1 value1 ...
    # iter - max # of iterations in each SHAKE solution
    # print SHAKE statistics every N many timesteps (0 = never)
    # b - bonds, a - angles
    # b 1 - bonds of type 1
    # a 1 - bonds of type 1
    # shake adds forces to make the displacement satisfy constraints - e.g. |r_ij|=d
    # rattle does the same and additionally it refines velocities - e.g. (|r|)'_t = 0.
    # *should be defined after other force- and v- modifiers since it doesn't account for them

thermo_style custom step density press temp
thermo ${NdumpStats}
thermo 10
run ${Nstab}
run 5000
PPPM initialization ...
  using 12-bit tables for long-range coulomb (src/kspace.cpp:332)
  G vector (1/distance) = 0.305114
  grid = 27 27 27
  stencil order = 5
  estimated absolute RMS force accuracy = 0.00306414
  estimated relative force accuracy = 9.22755e-06
  using double precision FFTW3
  3d grid and FFT values/proc = 10880 3645
Neighbor list info ...
  update every 1 steps, delay 10 steps, check yes
  max neighbors/atom: 2000, page size: 100000
  master list distance cutoff = 12
  ghost atom cutoff = 12
  binsize = 6, bins = 6 6 6
  1 neighbor lists, perpetual/occasional/extra = 1 0 0
  (1) pair lj/cut/coul/long, perpetual
      attributes: half, newton on
      pair build: half/bin/newton
      stencil: half/bin/3d/newton
      bin: standard
Per MPI rank memory allocation (min/avg/max) = 9.834 | 10.02 | 10.29 Mbytes
Step Density Press Temp 
       0    1.0041648    50479.628    296.38482 
      10   0.99700539    41713.557     402.8505 
      20   0.97937175    22789.155    901.49031 
      30   0.96177521     15218.77    1056.9103 
      40   0.94867849    14748.859    882.75667 
      50   0.93765744    12918.763    789.12955 
      60   0.92722841    10901.396    728.08032 
      70   0.91735262     9254.458    678.18899 
      80   0.90834111    7784.9475    640.07442 
      90   0.90040603    6220.0046    627.11559 
     100   0.89358934    5316.5461    588.74077 
     110   0.88771626     4261.079    559.36092 
     120   0.88266744    2926.2155    546.81714 
     130   0.87841205    2181.7535     504.6737 
     140   0.87484694    1355.6965    477.37645 
     150   0.87191727    556.54645    454.37829 
     160   0.86960843   -205.19253    442.33721 
     170   0.86791532   -721.53417      426.825 
     180   0.86680305   -1113.2129    409.46333 
     190   0.86622839   -1501.7972    400.30291 
     200   0.86616772      -1732.1    384.95868 
     210    0.8665793   -1911.4788    371.21185 
     220   0.86742329   -2099.6493    364.72343 
     230   0.86867487   -2288.2038    362.45793 
     240   0.87031196   -2225.7725    347.17569 
     250   0.87226673   -2220.3783    338.77046 
     260   0.87448338   -2271.1277    334.29506 
     270   0.87692584   -2157.7234     325.4055 
     280   0.87952499   -1937.3082    316.86993 
     290   0.88219013   -1701.8362    309.76025 
     300   0.88484617   -1634.8818     304.3503 
     310   0.88747329   -1772.9221    305.37176 
     320    0.8901026   -1829.7784    301.48519 
     330   0.89274758   -1815.5351    303.72877 
     340   0.89539094   -1512.5218    295.67327 
     350   0.89795816     -1231.09    286.92605 
     360    0.9003909   -1173.1951    287.95332 
     370   0.90269297   -1115.1442    288.47949 
     380   0.90487322   -957.52677    286.06989 
     390   0.90692039   -902.54709    287.20466 
     400   0.90884749   -968.66976    289.92507 
     410   0.91069552   -1049.7582    296.99073 
     420   0.91249865    -928.6362    296.02121 
     430   0.91424304   -792.46129    294.04345 
     440   0.91590759     -717.948    295.39402 
     450   0.91748618   -574.99496    290.22473 
     460   0.91896475   -573.94164    292.76504 
     470   0.92035953   -622.63244    294.04262 
     480   0.92170262   -722.76282    300.74746 
     490   0.92302317   -558.41258    295.71951 
     500   0.92429446    -459.3076    293.66058 
     510   0.92549625    -370.3624    291.61963 
     520   0.92662127   -380.69936    296.52599 
     530   0.92768141   -355.44995    298.24365 
     540   0.92868383   -274.30051    294.59699 
     550    0.9296187   -216.13623    295.45982 
     560   0.93048027    -162.3768     298.9476 
     570   0.93126451   -68.617708    298.74624 
     580   0.93196352   -132.02419    302.32223 
     590    0.9326063    -268.5249    306.28362 
     600   0.93323456   -232.30767    300.96937 
     610   0.93384987    -314.3482    306.49251 
     620   0.93447022   -357.95152    310.44428 
     630   0.93510624   -211.67406    304.25863 
     640   0.93571967     45.43962    289.48236 
     650   0.93625791   -87.520468    290.43518 
     660   0.93675471   -248.50864    293.31071 
     670   0.93726011   -334.73285    297.29832 
     680   0.93779816   -442.09981    304.76244 
     690   0.93838846   -302.51345    296.86108 
     700   0.93899929    -234.0984    292.78319 
     710   0.93961017   -319.80877    294.25965 
     720   0.94024327   -423.31338    296.43105 
     730   0.94092026   -364.78737    295.45202 
     740   0.94162452    -259.9318    295.04422 
     750   0.94232445   -154.54201    291.24536 
     760    0.9429995   -280.89112     295.5347 
     770   0.94368169   -440.10075    304.07912 
     780   0.94440622   -269.76539    300.27936 
     790   0.94512974    22.661679    291.88969 
     800   0.94577511    195.58727    292.25029 
     810    0.9463016    238.37999    298.63426 
     820   0.94670532    347.62927     299.5409 
     830   0.94696883    519.38532    296.08864 
     840   0.94706216    603.28505    294.86291 
     850   0.94697982    534.82042    295.22922 
     860   0.94675971    272.65425    299.92429 
     870   0.94648585   -39.137268     308.8097 
     880   0.94623977    -32.35574     305.3209 
     890   0.94602795   -5.2546816    305.44135 
     900   0.94583176    168.75347     297.9229 
     910   0.94561636    7.1581767    299.60057 
     920   0.94542213   -335.71753    300.16321 
     930   0.94534357   -689.19902    303.32498 
     940   0.94545717   -692.07392    300.97676 
     950   0.94575389   -543.87001    297.92197 
     960   0.94618064   -493.88901    298.55981 
     970   0.94670854    -362.6407    292.61468 
     980   0.94729291   -151.37895    286.84065 
     990   0.94787129    28.881852    284.48699 
    1000   0.94839684    31.659916    290.09363 
    1010   0.94887151   -93.777797    299.66972 
    1020    0.9493263   -6.1306048    294.34726 
    1030   0.94975307   -112.71731    297.34889 
    1040   0.95017338   -146.18952    295.29089 
    1050   0.95060538   -267.31553    301.42291 
    1060   0.95107015   -102.22078    299.02639 
    1070   0.95152364    236.89769    290.20531 
    1080   0.95188561    171.88832    299.87422 
    1090   0.95216586    179.93496    301.80022 
    1100   0.95237471      125.303    308.19941 
    1110   0.95252778     175.7329    305.48969 
    1120   0.95262145    251.01566    294.49017 
    1130   0.95264598    61.471421    294.44557 
    1140   0.95265429   -241.12233    303.21482 
    1150   0.95272451    -366.7782    306.49077 
    1160   0.95289119   -356.71034    304.64114 
    1170   0.95314274   -181.68109     299.2056 
    1180   0.95342775    41.267277    294.19898 
    1190    0.9536833    168.75902    291.89678 
    1200   0.95387458    183.01524    294.43954 
    1210   0.95399947    187.41236    297.58864 
    1220   0.95406302    149.69487    301.88704 
    1230   0.95407748    133.78543    303.03708 
    1240   0.95405031    205.24866    298.24466 
    1250   0.95397008    172.73138    296.87513 
    1260   0.95384935    5.7941548    299.84431 
    1270   0.95373517   -186.17049    304.75983 
    1280   0.95367398   -125.59093    298.99475 
    1290   0.95365575   -73.052152    294.50419 
    1300   0.95365809    29.138526    288.49271 
    1310   0.95365591   -8.9611889    293.75334 
    1320   0.95365446    -49.85583     296.1088 
    1330   0.95366848   -90.586982    295.06816 
    1340   0.95371046   -195.40036    298.69045 
    1350   0.95380003   -82.581164    294.42062 
    1360   0.95390641     119.8505    293.04099 
    1370   0.95396953    356.86397    292.94969 
    1380   0.95392654     516.1939    291.33979 
    1390   0.95374687    338.54474    298.98447 
    1400   0.95347983    137.72978    302.72624 
    1410   0.95318776    37.397973    301.45516 
    1420   0.95290205   -12.963131    302.39394 
    1430   0.95263308     95.71093    295.52627 
    1440   0.95235737    66.879999    296.19084 
    1450   0.95207872   -21.940396    301.31709 
    1460   0.95181743    13.075831    300.73728 
    1470   0.95157066   -80.357188    303.29609 
    1480   0.95135905   -141.98933    301.08709 
    1490   0.95120019   -148.08193    296.95527 
    1500   0.95109312   -116.37111    295.12242 
    1510   0.95102574   -75.312323    296.33801 
    1520   0.95098462   -109.17803    303.49645 
    1530   0.95097291   -38.221665    300.96328 
    1540   0.95097585   -84.400528    305.30955 
    1550   0.95099817   -13.759079    302.25848 
    1560   0.95102254    130.25715    291.64244 
    1570   0.95101628     16.17003    291.41945 
    1580   0.95100852   -252.74096    297.00492 
    1590   0.95107539   -551.81059    302.20549 
    1600   0.95129377   -646.17657    303.30056 
    1610    0.9516833   -534.23695    304.93314 
    1620    0.9522029   -264.61187    301.30632 
    1630   0.95277308     27.67751    294.35021 
    1640   0.95331187    162.39335    294.49097 
    1650   0.95377806    224.05252    293.47842 
    1660     0.954162    148.63762    294.16156 
    1670    0.9544839    75.467136    292.34723 
    1680   0.95477234   -79.662919    295.70419 
    1690   0.95506868   -178.79008    294.21964 
    1700   0.95540711   -336.87021     298.6432 
    1710   0.95581747   -158.95917    298.63971 
    1720   0.95625294    120.92093    296.31231 
    1730    0.9566382    231.89244    295.48064 
    1740   0.95693641    403.23328    289.01073 
    1750   0.95710995    418.86658    290.94243 
    1760   0.95715651    335.09657    290.90501 
    1770   0.95710862     133.9196    288.13836 
    1780   0.95702918   -183.63775    297.03558 
    1790   0.95699664   -170.23887    298.04315 
    1800   0.95701412   -88.512439    300.81326 
    1810    0.9570555    8.8298567    301.60221 
    1820   0.95709334    102.17211     301.8772 
    1830   0.95709962    187.75113     300.4918 
    1840   0.95705628    148.40765    303.66836 
    1850    0.9569703    94.043651    309.27304 
    1860   0.95685875    97.172724    307.94768 
    1870   0.95672551    34.929641    308.74825 
    1880   0.95658816   -68.614612    307.75003 
    1890    0.9564741   -78.310364    299.74902 
    1900   0.95639217   -225.63117    304.36163 
    1910   0.95637291   -244.92277    307.43853 
    1920   0.95642521   -227.51375    308.79163 
    1930   0.95653798   -110.30322    303.32996 
    1940   0.95667723    72.876096    292.22636 
    1950   0.95679983   -59.784307    291.23167 
    1960   0.95693978   -398.25424     297.6168 
    1970   0.95718529   -569.67078    296.00592 
    1980   0.95758552    -619.5787    294.93759 
    1990   0.95814799   -527.15357    294.31881 
    2000   0.95884166   -350.15477    292.42358 
    2010   0.95961113   -109.20236    288.81162 
    2020   0.96038654    78.340812    290.10189 
    2030     0.961115    148.93019    288.81002 
    2040   0.96177869    92.092932    290.80189 
    2050   0.96238869    146.79132    290.34797 
    2060   0.96293837     104.2088    296.09365 
    2070   0.96343212    229.76913     295.1656 
    2080   0.96384088    429.99577    290.26641 
    2090   0.96412034    303.51007    294.96025 
    2100   0.96430313    95.011559    300.49273 
    2110   0.96444806    34.572144    302.06336 
    2120   0.96457783    12.429829     304.9203 
    2130   0.96469821     49.90517    308.99693 
    2140   0.96479264    370.17614    299.34664 
    2150    0.9647798    633.45793    292.50195 
    2160   0.96458772    694.70906    293.51841 
    2170   0.96420283     611.2009    294.72495 
    2180   0.96365648    393.38641    296.95673 
    2190   0.96301695    65.113082    301.83793 
    2200   0.96237582   -146.39258    301.49952 
    2210   0.96179794   -283.57885    304.29013 
    2220   0.96131384   -159.88648    301.14855 
    2230   0.96089164   -4.0966882     298.2609 
    2240   0.96048761   -15.320416      298.942 
    2250    0.9601053   -181.95168    298.77467 
    2260   0.95978854   -356.24225     301.1509 
    2270   0.95958327   -444.82173     304.0622 
    2280   0.95951019   -420.47497    304.73397 
    2290   0.95955839   -247.37238    298.63849 
    2300   0.95968308   -219.44842    301.47062 
    2310   0.95986269   -70.368759    299.20834 
    2320   0.96005792    95.480736    294.76985 
    2330   0.96022263    129.86431    295.74647 
    2340   0.96034558    111.22244     298.2814 
    2350   0.96042893     208.4928    296.36202 
    2360   0.96045096    275.87373    290.76958 
    2370    0.9603968    178.58042    291.54839 
    2380   0.96029106    77.361829    296.03369 
    2390   0.96015992    149.63518    296.73514 
    2400   0.95998979    193.58033    300.50569 
    2410   0.95976738    190.94283     303.0342 
    2420   0.95949562    135.57178    305.89869 
    2430   0.95918858    148.35393    305.51067 
    2440   0.95884055    341.97828    293.92201 
    2450   0.95841022     314.3154    290.30646 
    2460   0.95790207    123.27488    294.09058 
    2470   0.95736629    17.388624    293.01982 
    2480   0.95684081   -157.52328    295.11563 
    2490   0.95637201   -285.77537    298.63364 
    2500   0.95599624   -319.36063    301.64077 
    2510   0.95571784   -160.11693    296.32485 
    2520   0.95549651   -115.80223    300.36683 
    2530   0.95530975    9.1436446    299.80566 
    2540   0.95512159     242.4341    292.75656 
    2550   0.95487323    271.68777    291.64457 
    2560   0.95455442    169.06119    288.07255 
    2570   0.95420277   -235.19626    299.79379 
    2580   0.95391801   -386.49877    307.70553 
    2590   0.95374231   -129.57965    295.51762 
    2600   0.95361837   -128.21115    299.14402 
    2610   0.95353179    -116.3041    298.35416 
    2620   0.95348312    -159.9872    299.18874 
    2630    0.9534797   -136.15682    302.94366 
    2640   0.95350936    140.61193      294.575 
    2650   0.95349919    392.64458    286.99957 
    2660    0.9533853    249.82222    295.22676 
    2670   0.95319946     34.25871    301.57649 
    2680   0.95300582   -103.13803    303.49487 
    2690   0.95283896   -20.909676    299.30577 
    2700   0.95268415   -37.352078    305.86686 
    2710   0.95253717     92.10049    301.36096 
    2720   0.95237185    91.088217    299.94051 
    2730   0.95218328    61.528183     301.3461 
    2740   0.95197729    127.60475    299.51829 
    2750   0.95173578    201.29177    296.12081 
    2760   0.95144382    89.907345    298.18682 
    2770   0.95113475   -216.34697     304.7365 
    2780    0.9508892    -380.6677    300.88104 
    2790   0.95076188   -536.49567     301.9208 
    2800   0.95078784   -493.56007    300.48258 
    2810   0.95095633    -344.8147    296.32486 
    2820   0.95122237   -172.20555    296.41863 
    2830   0.95153354    45.374979    293.33183 
    2840   0.95183304    41.451756    293.02118 
    2850   0.95212254   -164.30593    297.98643 
    2860   0.95245311   -267.75539    301.09296 
    2870   0.95285671    -272.1531    301.58121 
    2880   0.95333142   -113.31388    295.61915 
    2890   0.95383707    37.236789    292.67753 
    2900   0.95432848    128.50775    291.99831 
    2910   0.95477992    125.78349     293.3107 
    2920   0.95518992    112.32468    293.23808 
    2930   0.95556285    107.11871    291.50606 
    2940   0.95590448   -29.405105    299.37016 
    2950   0.95624389    55.456602    299.27443 
    2960   0.95656379    216.83411    295.13469 
    2970   0.95681818    327.80446    289.37319 
    2980   0.95698434    95.025874    298.73244 
    2990   0.95711157    111.06015    299.39024 
    3000   0.95720461     275.2404     297.0972 
    3010   0.95721745    389.05699    293.47065 
    3020   0.95711966    381.86564    293.37898 
    3030   0.95690908    386.87564    292.00655 
    3040   0.95658947    316.67522    294.60768 
    3050   0.95617875    197.56214     300.3006 
    3060   0.95571383     15.34327    305.61731 
    3070   0.95524624   -139.22871    309.36753 
    3080   0.95481696   -86.252631    306.91088 
    3090    0.9544123    94.832818    303.82385 
    3100    0.9539833    234.23704    302.13862 
    3110   0.95349225    188.60194    301.13116 
    3120   0.95295123    38.541014    302.85883 
    3130   0.95239887   -49.196917    303.74601 
    3140   0.95186338   -148.30748    306.11447 
    3150   0.95137327   -189.82987    303.95167 
    3160   0.95094105   -191.28604    300.54087 
    3170   0.95056619   -154.51884    294.78381 
    3180   0.95024554   -329.59748    298.83971 
    3190   0.95001634   -325.08267    293.55128 
    3200   0.94988625   -316.55474    291.26653 
    3210   0.94984558    -209.9689    290.28092 
    3220   0.94986829   -163.24383    293.19885 
    3230   0.94993874   -163.27251    296.68472 
    3240   0.95005781   -168.75932    296.65952 
    3250   0.95022229    10.579006    286.30685 
    3260   0.95039321   -42.826754    292.91348 
    3270    0.9505722    -27.98611     298.4805 
    3280   0.95075451    155.24798     298.2158 
    3290   0.95089011    359.33981     292.4017 
    3300   0.95092587    332.52004    294.34294 
    3310   0.95086622    142.06363     304.9175 
    3320   0.95075703    207.24386    294.77867 
    3330   0.95060028   -76.060543    300.97573 
    3340   0.95046027   -244.58651    305.45034 
    3350   0.95038589   -165.38057    303.65214 
    3360   0.95036078   -70.393729    299.07877 
    3370   0.95036177   -116.97358    295.32297 
    3380   0.95040296   -340.02546    302.96243 
    3390   0.95053951   -412.93096     304.2311 
    3400   0.95079922   -413.38387    302.39612 
    3410   0.95118528     -482.259    303.92491 
    3420   0.95171455   -491.83926    306.75661 
    3430   0.95238127   -128.98674    297.51736 
    3440    0.9530954    97.716159    295.60861 
    3450   0.95378906    83.281137    300.89314 
    3460   0.95445412    260.48248    300.53988 
    3470   0.95504454    465.66558    299.92412 
    3480   0.95550266    553.41928    292.68772 
    3490   0.95580777    368.77189    295.58872 
    3500    0.9560005    271.94758    297.47215 
    3510   0.95611424    192.88261    297.81634 
    3520   0.95616964    190.56593    293.44468 
    3530    0.9561709    168.46016    289.57726 
    3540   0.95612635   -10.574728    290.99895 
    3550    0.9560842   -171.91649    293.49922 
    3560   0.95608873   -156.87157    293.60343 
    3570    0.9561401   -125.97028    300.23674 
    3580   0.95622209     95.55642    298.20449 
    3590   0.95628059    211.04976    293.70922 
    3600   0.95628144    159.69828    294.52741 
    3610   0.95623343    157.12166    291.86948 
    3620    0.9561429    6.9237687    298.32491 
    3630   0.95604539   -67.267996     299.1451 
    3640    0.9559679   -113.70619     296.9072 
    3650   0.95592338   -105.75042     300.3496 
    3660   0.95590187    161.95196    296.63602 
    3670   0.95583457    359.18609    293.53963 
    3680   0.95566657    272.27243    295.02109 
    3690   0.95541765    80.915935    298.80465 
    3700   0.95513599    84.642627    294.93421 
    3710   0.95482894    44.651166    296.63226 
    3720   0.95450726   -85.517871    302.59703 
    3730   0.95420396   -124.34718    303.24413 
    3740   0.95393119    -64.50138    300.14646 
    3750   0.95367766   -131.76275    305.79306 
    3760   0.95345453   -103.84242    305.48877 
    3770   0.95326315   -126.74879    302.20067 
    3780   0.95310561   -125.71364     301.3949 
    3790   0.95298397   -159.82551    298.76953 
    3800   0.95291335   -378.98736    302.18079 
    3810   0.95294825    -382.4599    299.20897 
    3820   0.95309601   -296.02928    303.64169 
    3830   0.95333134   -148.18916    301.49631 
    3840   0.95362118   -157.23737    301.24611 
    3850    0.9539612   -130.23874    302.15938 
    3860   0.95434363   -13.500182    299.47477 
    3870   0.95473745    97.001786    298.42686 
    3880   0.95510878    243.27877    294.58773 
    3890   0.95541608    348.27473    292.35214 
    3900   0.95563076    261.12985     293.9147 
    3910   0.95577208    128.15653    293.55207 
    3920   0.95587619    66.555897     292.5398 
    3930   0.95596159    24.262522    293.30891 
    3940   0.95604097   -4.6732625    295.71054 
    3950   0.95612041    70.771272    291.40483 
    3960   0.95618284    125.74868    285.43698 
    3970   0.95621466    11.272284    292.80245 
    3980   0.95623332    159.30416    292.98655 
    3990   0.95621555     8.920468    301.86066 
    4000   0.95618965   -64.357994    302.19297 
    4010   0.95618329   -83.962354    302.63415 
    4020   0.95619928   0.34983887    297.74878 
    4030    0.9562196    14.559943    297.86465 
    4040   0.95623884   -81.623169    306.53001 
    4050   0.95627426    105.82466    303.67961 
    4060   0.95627923    347.40574    301.18234 
    4070   0.95618421       424.42    298.65122 
    4080   0.95596794    176.97161    305.44084 
    4090   0.95568544    100.87438    300.44213 
    4100   0.95536811    32.072824    297.49458 
    4110   0.95503017    7.7596412    300.94386 
    4120   0.95467302    246.25939    288.22123 
    4130   0.95424539    106.12792    288.57311 
    4140   0.95377631   -185.37733    293.70504 
    4150   0.95334821   -463.77617    301.74018 
    4160    0.9530405   -566.19194    304.87104 
    4170   0.95288967   -455.92621    299.80907 
    4180   0.95287359   -393.53294    301.31225 
    4190   0.95297467   -335.69766    300.06853 
    4200   0.95317949   -280.45821    302.46868 
    4210   0.95347246   -200.10839    302.17559 
    4220   0.95383996   -303.70196    305.79577 
    4230   0.95430893   -358.94705    303.29725 
    4240    0.9548987   -243.93648    295.94778 
    4250   0.95557797   -41.952189     293.1763 
    4260   0.95629324    99.944966    292.22144 
    4270   0.95700253    207.40513     288.5675 
    4280   0.95767601    226.42849    288.39301 
    4290   0.95830468    144.61365    294.71898 
    4300   0.95890155    252.99691    291.48989 
    4310   0.95944362    301.93941    296.88529 
    4320    0.9599078    455.77217    289.91044 
    4330   0.96026342    256.27983    297.35647 
    4340    0.9605475    145.86917    303.65976 
    4350   0.96079425    121.95278    306.07933 
    4360    0.9610102    175.26208    304.89664 
    4370   0.96117697    437.20626    292.58694 
    4380   0.96122587     520.3111    295.36078 
    4390     0.961116    639.59604    292.19528 
    4400   0.96082047    440.96587    299.54193 
    4410   0.96037946     253.0884    303.58015 
    4420   0.95984649    137.66392    301.13334 
    4430   0.95925804   -101.89225     308.5531 
    4440    0.9586692   -31.984418    299.95621 
    4450     0.958079   -137.05249    299.31387 
    4460   0.95750851   -227.47928    299.97357 
    4470   0.95698454   -224.78951    301.46296 
    4480   0.95650786   -134.68968    298.00613 
    4490   0.95605813   -91.225545    295.16898 
    4500   0.95562382   -175.98994    293.40682 
    4510   0.95523407   -467.51641    296.35266 
    4520   0.95496869   -702.04322    299.33475 
    4530   0.95490157   -796.96948     303.2752 
    4540   0.95506533   -658.26652    296.72679 
    4550   0.95543655   -545.96316    294.61663 
    4560   0.95598378   -386.17921    297.73924 
    4570   0.95666277   -118.85282      298.859 
    4580    0.9574032    91.428671    299.69032 
    4590   0.95814546    199.81399    296.26874 
    4600   0.95886105    116.12022     298.9053 
    4610    0.9595672    13.834809    302.06298 
    4620   0.96029176    32.063313    303.50075 
    4630   0.96102498    297.21593    298.81952 
    4640   0.96169512    555.63081    294.15785 
    4650    0.9622281    565.56157    293.21779 
    4660   0.96261637    318.54314    296.24903 
    4670     0.962922    92.246734    298.13665 
    4680   0.96320428    143.91574    297.22738 
    4690    0.9634493    352.95501    293.73723 
    4700   0.96360078    421.04777    291.79777 
    4710   0.96363639    271.63713    293.04435 
    4720   0.96359332    59.473981    296.70589 
    4730   0.96352364     75.01592    295.43763 
    4740   0.96342688       214.62     289.9259 
    4750   0.96326986    140.65965    293.41547 
    4760   0.96306328    50.833759    299.03283 
    4770   0.96282984    64.731244    299.38458 
    4780   0.96257111    5.0047599    301.53309 
    4790   0.96229866     31.92184    300.54756 
    4800   0.96200727     59.23251    298.32921 
    4810   0.96168912   -7.7183059    297.95171 
    4820   0.96136272   -137.21869    301.58868 
    4830   0.96106128   -185.34985    305.29879 
    4840   0.96080012   -125.55948    305.53891 
    4850   0.96056495   -7.6357861     301.9301 
    4860   0.96032355    83.527335    299.69151 
    4870   0.96004701    208.23634    291.07238 
    4880   0.95970278    124.74415    292.73922 
    4890   0.95930686  -0.16410239    295.46177 
    4900   0.95889477   -102.56949    295.17699 
    4910   0.95849809   -245.87271    299.33837 
    4920   0.95815568   -341.08601    301.09723 
    4930   0.95790118   -411.47074    298.70438 
    4940   0.95775899   -419.58644    296.84341 
    4950   0.95773565   -331.87155    297.93549 
    4960   0.95781086   -202.26599    297.99074 
    4970   0.95795378   -175.33705    301.47602 
    4980   0.95815162   -8.8332182    299.25281 
    4990   0.95836052     179.7201    299.03697 
    5000   0.95852977    161.57466    303.08843 
Loop time of 30.011 on 6 procs for 5000 steps with 3000 atoms

Performance: 14.395 ns/day, 1.667 hours/ns, 166.606 timesteps/s
99.3% CPU use with 6 MPI tasks x 1 OpenMP threads

MPI task timing breakdown:
Section |  min time  |  avg time  |  max time  |%varavg| %total
---------------------------------------------------------------
Pair    | 13.113     | 14.185     | 14.853     |  17.4 | 47.27
Bond    | 0.004288   | 0.0049926  | 0.006556   |   1.1 |  0.02
Kspace  | 6.6266     | 7.2879     | 8.3407     |  24.0 | 24.28
Neigh   | 1.2333     | 1.2347     | 1.2361     |   0.1 |  4.11
Comm    | 1.4155     | 1.5566     | 1.7289     |  10.9 |  5.19
Output  | 0.013515   | 0.014764   | 0.020439   |   2.1 |  0.05
Modify  | 5.0338     | 5.3832     | 5.696      |  12.4 | 17.94
Other   |            | 0.3438     |            |       |  1.15

Nlocal:    500 ave 510 max 492 min
Histogram: 1 1 0 1 0 1 1 0 0 1
Nghost:    6776.67 ave 6792 max 6756 min
Histogram: 1 0 0 0 2 0 1 0 0 2
Neighs:    173612 ave 179029 max 160825 min
Histogram: 1 0 0 0 1 0 0 0 1 3

Total # of neighbors = 1041672
Ave neighs/atom = 347.224
Ave special neighs/atom = 2
Neighbor list builds = 258
Dangerous builds = 8
unfix stab_iso
unfix stab_constrain

reset_timestep 0
fix stab_iso all npt temp ${Text} ${Text} $(200.0*dt) iso ${Pext} ${Pext} $(5000.0*dt)
fix stab_iso all npt temp 298 ${Text} $(200.0*dt) iso ${Pext} ${Pext} $(5000.0*dt)
fix stab_iso all npt temp 298 298 $(200.0*dt) iso ${Pext} ${Pext} $(5000.0*dt)
fix stab_iso all npt temp 298 298 200 iso ${Pext} ${Pext} $(5000.0*dt)
fix stab_iso all npt temp 298 298 200 iso 1 ${Pext} $(5000.0*dt)
fix stab_iso all npt temp 298 298 200 iso 1 1 $(5000.0*dt)
fix stab_iso all npt temp 298 298 200 iso 1 1 5000
fix stab_constrain all rattle 1.0e-5 100 0 b 1 a 1
  0 = # of size 2 clusters
  0 = # of size 3 clusters
  0 = # of size 4 clusters
  1000 = # of frozen angles
  find clusters CPU = 0.000291824 secs

thermo_style custom step density etotal press temp
thermo_modify flush yes
    # insures the output is dumped in the file and not buffered or something
thermo ${NdumpStats}
thermo 10
dump trj all atom ${NdumpFrames} wat.lammpstrj
dump trj all atom 1000 wat.lammpstrj

run ${Nrun}
run 500000
PPPM initialization ...
  using 12-bit tables for long-range coulomb (src/kspace.cpp:332)
  G vector (1/distance) = 0.303976
  grid = 27 27 27
  stencil order = 5
  estimated absolute RMS force accuracy = 0.00320927
  estimated relative force accuracy = 9.66461e-06
  using double precision FFTW3
  3d grid and FFT values/proc = 10880 3645
Per MPI rank memory allocation (min/avg/max) = 10.85 | 11.16 | 11.33 Mbytes
Step Density TotEng Press Temp 
       0   0.95852977   -9375.0547    126.63849    303.08843 
      10   0.95852957   -9375.1617    232.12089    298.69252 
      20   0.95852871   -9375.2262    302.98893    297.66517 
      30   0.95852701   -9375.5449    207.89902    302.80631 
      40   0.95852466   -9375.7491    163.00929    301.97807 
      50   0.95852184   -9376.1569    134.59467    301.25055 
      60   0.95851861    -9376.717    97.892128     308.6321 
      70   0.95851501   -9377.5778    290.89074    309.60977 
      80   0.95851051   -9378.6255    651.83092    300.19728 
      90   0.95850418   -9379.7877    758.56419    294.89147 
     100    0.9584957   -9381.2166    557.03899     301.7713 
     110   0.95848553   -9382.4767    446.31494    298.38104 
     120   0.95847408   -9383.8303    272.35914    298.45873 
     130   0.95846187   -9385.2844   -38.500754    306.53298 
     140   0.95844971   -9387.0703   -130.84789    302.48689 
     150   0.95843795   -9388.8936    -200.9498    298.18547 
     160   0.95842684   -9391.1339   -474.69206    307.05112 
     170   0.95841706   -9393.5257   -541.90243    308.22634 
     180    0.9584088   -9396.2221    -296.6345    296.88107 
     190   0.95840149   -9399.0722    -234.1552    297.26206 
     200   0.95839488    -9402.198   -281.51751    302.88872 
     210   0.95838905   -9405.2928   -222.11756    299.37445 
     220   0.95838393   -9408.7178   -271.59367    301.26886 
     230   0.95837958   -9412.1038   -308.35311    302.09398 
     240   0.95837616   -9416.1454   -382.62159    305.59398 
     250   0.95837382   -9420.2916   -304.57643    300.90007 
     260   0.95837236   -9424.4654   -94.025897    290.70283 
     270   0.95837123   -9428.5867   -80.083033    292.38744 
     280   0.95837039   -9432.9323   -342.00409    301.70213 
     290    0.9583705   -9437.1683   -440.02836    301.06122 
     300   0.95837189   -9441.7729   -423.24001     301.0717 
     310   0.95837448   -9446.0104    -216.8891    293.02274 
     320   0.95837777   -9450.3608   -191.13523    294.83326 
     330   0.95838159   -9454.2586   -107.77744    288.18803 
     340   0.95838582   -9457.8166   -266.49167    288.77747 
     350   0.95839087   -9461.3053   -626.48425    298.65998 
     360   0.95839769   -9464.5694   -754.23373    298.18082 
     370   0.95840672   -9467.8199   -775.86693    296.83125 
     380   0.95841802   -9470.6478   -685.82287    290.70957 
     390    0.9584314   -9473.2759   -759.93688    294.75089 
     400   0.95844698   -9475.6866    -671.7289    292.65568 
     410   0.95846454   -9477.8116   -554.65264    294.42652 
     420   0.95848368   -9479.6408   -310.96948    291.08109 
     430   0.95850379   -9481.3468   -231.70121    292.19125 
     440   0.95852459   -9482.3174   -169.09613    284.96629 
     450   0.95854595   -9483.2688   -261.76468    289.11539 
     460   0.95856802   -9483.7781   -219.46573    288.39208 
     470   0.95859078   -9484.0698   -262.96186    290.12946 
     480    0.9586143   -9484.1841   -296.43584    295.30409 
     490   0.95863864   -9483.8956    -142.8819    290.58951 
     500   0.95866347   -9483.6527   -131.17967    291.68094 
     510   0.95868869   -9483.3645   -160.81335    293.58854 
     520   0.95871434   -9482.6846   -52.206914    287.76982 
     530   0.95874023   -9482.1849   -121.35795    291.23314 
     540   0.95876646   -9481.2062   -210.69937     291.5926 
     550   0.95879336   -9480.1914   -382.80695    292.27719 
     560   0.95882137   -9479.1493    -484.1926    292.72605 
     570   0.95885081   -9477.9642    -495.3184    295.82245 
     580   0.95888165   -9476.6559   -256.95748    288.69812 
     590    0.9589133   -9475.4076   -147.00395    288.25961 
     600   0.95894542   -9474.0072    -262.8065    299.05689 
     610   0.95897825   -9472.6076   -170.04718     295.1854 
     620   0.95901163   -9471.3859   -148.59699    293.80352 
     630   0.95904547   -9469.9111   -192.66408    294.13845 
     640    0.9590799   -9468.6446   -279.64141    295.59042 
     650   0.95911511   -9467.3417   -216.12453    296.18634 
     660   0.95915095   -9465.9065   -61.165343    292.01117 
     670   0.95918704   -9464.5052    -86.85969    289.49422 
     680   0.95922347   -9463.1298    -338.3988    291.54627 
     690   0.95926089   -9461.5535   -556.63386    293.85113 
     700   0.95929991   -9459.9226   -600.01482    293.33232 
     710   0.95934072   -9458.3367   -606.04026    294.10754 
     720   0.95938333   -9456.7102   -625.89538    298.85688 
     730   0.95942776   -9455.1558   -568.85373     300.9445 
     740   0.95947383   -9453.6404    -362.3459    295.41138 
     750   0.95952099   -9452.0381    -125.7773    291.29458 
     760   0.95956856   -9450.5769    19.979976    290.98241 
     770   0.95961606   -9448.9721    181.60612    287.21882 
     780    0.9596631   -9447.1189    145.66485    289.41604 
     790   0.95970978    -9445.155   -86.472849    296.17453 
     800   0.95975671   -9442.9799   -294.77311    301.90405 
     810   0.95980452   -9441.1666   -499.81888    309.60465 
     820   0.95985376   -9439.6128   -508.96971    306.76213 
     830   0.95990449   -9438.4512   -432.26123    303.24461 
     840   0.95995654   -9437.4692   -394.83651    299.68435 
     850   0.96000977   -9436.5049   -301.61097    297.90054 
     860    0.9600639   -9435.5817   -145.26417    293.84298 
     870   0.96011855   -9434.7016   -243.85822    296.51401 
     880   0.96017394   -9433.6773   -388.46062    295.47255 
     890   0.96023052   -9432.6554    -583.8073    295.20757 
     900   0.96028883   -9431.5712   -743.17897    298.76685 
     910   0.96034926   -9430.4791   -594.64992    293.14113 
     920   0.96041148   -9429.3994   -410.66916    292.49456 
     930   0.96047494   -9428.1734   -249.33527    291.45038 
     940   0.96053916     -9426.62   -131.61611    287.12965 
     950    0.9606039   -9425.1015   -439.18724    299.13737 
     960    0.9606699    -9423.274   -661.32638    300.98588 
     970   0.96073784   -9421.6339   -677.90351    299.40066 
     980   0.96080779   -9420.1451   -652.15808    299.99363 
     990   0.96087967   -9418.7015   -516.11972    295.66434 
    1000   0.96095311   -9417.2505   -434.30503    296.29482 
    1010   0.96102787   -9415.4787   -390.26943    293.67365 
    1020   0.96110384   -9413.8371   -475.20533    295.14158 
    1030   0.96118123   -9412.0996   -579.38492    298.33886 
    1040   0.96126032   -9410.4528   -512.46696    295.63882 
    1050    0.9613409   -9408.3396    -260.9059    285.49887 
    1060   0.96142239   -9406.3869   -369.83996    295.19016 
    1070   0.96150494   -9404.0559   -413.09494    302.31342 
    1080   0.96158865   -9401.7782   -112.25683    296.82745 
    1090   0.96167275   -9399.6512    89.493168    298.59251 
    1100   0.96175661   -9397.4137    234.28011    297.87326 
    1110   0.96183986   -9395.3685    244.41571    297.45353 
    1120   0.96192245   -9393.1291    142.36535    295.71063 
    1130   0.96200471   -9391.0128   -160.19349    306.31112 
    1140   0.96208736   -9388.8673   -128.65906     304.4285 
    1150   0.96217039   -9387.0745    51.892137    298.67388 
    1160   0.96225333   -9385.1656    139.58479    293.22213 
    1170     0.962336   -9383.4184   -186.77288    307.06656 
    1180   0.96241914   -9381.7244     -272.089    307.58818 
    1190   0.96250311   -9380.2063   -275.59928    303.84746 
    1200   0.96258793   -9379.0348   -335.99937    308.35673 
    1210   0.96267372   -9378.0449    -273.9721    305.38058 
    1220   0.96276036   -9377.4649   -296.32522    311.86267 
    1230   0.96284782   -9377.0876   -84.962455    307.41214 
    1240   0.96293559   -9377.0186     99.70734    302.35175 
    1250   0.96302314   -9377.1468    136.35756    303.36478 
    1260   0.96311031   -9377.3885    149.24053    305.34848 
    1270   0.96319706   -9377.8755    149.67614    305.86322 
    1280    0.9632834   -9378.7762    89.947656     305.1865 
    1290   0.96336951   -9379.8769    21.710967    301.97794 
    1300   0.96345561   -9381.2365   -128.18591     304.4152 
    1310   0.96354213   -9382.8248   -290.60514    308.41583 
    1320   0.96362946   -9384.4867    -227.9334    299.74417 
    1330   0.96371751   -9386.6176   -220.72825    300.70199 
    1340   0.96380622   -9389.1114   -238.98895    306.80202 
    1350   0.96389562   -9391.8286   -166.69097    302.86775 
    1360   0.96398562   -9395.2317   -272.06628    307.29199 
    1370   0.96407635   -9398.9387   -101.26566    303.06275 
    1380   0.96416737   -9403.2399    185.01128    300.57699 
    1390    0.9642579   -9408.0483    308.16297    299.54116 
    1400   0.96434762   -9413.2041    158.82683    298.94511 
    1410   0.96443691   -9418.9909   -33.380488    303.58981 
    1420   0.96452624   -9425.4059    11.416988    302.16128 
    1430   0.96461552   -9432.2989    165.72424    299.98202 
    1440   0.96470434   -9439.4978    250.84098    296.76097 
    1450   0.96479252   -9446.9308    53.427769    301.68257 
    1460   0.96488054   -9454.6052   -188.80174    306.03636 
    1470    0.9649691   -9462.1692   -238.20919    301.12758 
    1480   0.96505834   -9469.4438   -131.68578    296.34271 
    1490   0.96514799   -9475.9953    5.4422869      293.971 
    1500   0.96523767    -9481.802    57.454179    292.40031 
    1510   0.96532723   -9486.8651   -14.390796    296.53895 
    1520    0.9654168   -9491.1998    76.033085      294.054 
    1530   0.96550616   -9494.8015    191.02751    291.64829 
    1540   0.96559498   -9497.7426    244.92803    289.01714 
    1550   0.96568312    -9499.912    217.27686    285.65882 
    1560   0.96577071   -9501.8439   -45.677376    296.20802 
    1570   0.96585837   -9503.0037   -101.74897    291.00485 
    1580   0.96594638   -9504.1507   -181.26559    291.65492 
    1590   0.96603487   -9504.9939   -52.044368    286.72355 
    1600   0.96612359   -9505.5423   -88.837663    291.18724 
    1610   0.96621257    -9505.806   -168.54902    295.95354 
    1620     0.966302   -9505.8478   -50.761548    288.97067 
    1630   0.96639162    -9505.665     16.69316    284.96135 
    1640   0.96648127   -9505.3433     -114.558    290.68594 
    1650   0.96657124   -9504.7032   -242.26561    295.19103 
    1660    0.9666619   -9504.0019   -236.55653    295.80721 
    1670   0.96675321   -9503.1389   -49.975493    291.29029 
    1680   0.96684467   -9502.0584    185.01236    288.52635 
    1690   0.96693562    -9501.029    337.78291    290.17157 
    1700   0.96702556   -9499.4812    526.04917    283.93129 
    1710   0.96711406   -9497.8878    401.64573    288.11622 
    1720   0.96720139   -9495.8548    158.92987     294.2316 
    1730   0.96728825   -9493.7946   -29.268125    296.36316 
    1740   0.96737516   -9491.5621   -43.720526    297.77826 
    1750   0.96746218   -9489.5925    28.284873    297.07562 
    1760   0.96754913   -9487.1796    100.27772    292.23273 
    1770   0.96763583   -9485.0183    87.721497    296.15636 
    1780   0.96772219   -9482.7382    259.33285    295.38972 
    1790   0.96780781   -9480.4266    432.68602    293.36935 
    1800   0.96789218   -9477.8326    468.97312     292.9084 
    1810   0.96797525   -9475.2859    202.58004    299.71087 
    1820   0.96805769   -9472.6402     20.32441    300.70399 
    1830   0.96814004   -9470.0032    68.154206    294.05998 
    1840   0.96822225   -9467.6845   -1.2488709    299.61732 
    1850   0.96830439   -9464.9883    113.71152    297.74424 
    1860   0.96838619   -9462.3638    268.45247    291.21877 
    1870   0.96846728   -9459.6939    199.35606    292.15717 
    1880   0.96854782   -9456.7797   -32.545987    296.20641 
    1890   0.96862841   -9453.9895   -170.16383    300.49632 
    1900   0.96870947   -9451.2192   -153.44399    297.53895 
    1910   0.96879101   -9448.3671   -200.56945    295.33788 
    1920   0.96887317    -9445.729   -329.04288    301.20142 
    1930   0.96895624   -9442.9285   -247.84973    299.89826 
    1940   0.96904001   -9440.1337   -43.076427    295.43597 
    1950    0.9691239   -9437.5578    169.70005    295.38176 
    1960   0.96920731   -9434.9263    315.97924    296.03746 
    1970   0.96928983   -9432.3773    322.86748    300.89869 
    1980   0.96937135   -9429.5798    442.46935    296.25917 
    1990    0.9694516   -9426.9755    499.32876    293.58456 
    2000   0.96953041   -9424.3717    430.12343    298.11477 
    2010   0.96960792   -9421.8216    420.05047    302.50374 
    2020   0.96968417   -9419.3591    415.27951    304.45596 
    2030   0.96975918    -9417.031    480.16416    298.18049 
    2040   0.96983282    -9414.882    376.28708    300.07305 
    2050   0.96990538   -9412.9382    140.53233    306.27037 
    2060   0.96997747   -9410.9734    107.05134    304.02923 
    2070   0.97004926   -9409.4463    101.78392    303.34625 
    2080   0.97012074   -9407.9243    104.50262    304.43185 
    2090   0.97019188   -9406.6658    240.44787    300.87263 
    2100   0.97026231   -9405.5249    328.06633    304.51816 
    2110   0.97033172   -9404.5602    532.55639     302.9467 
    2120   0.97039957    -9403.618    722.08947    298.34761 
    2130   0.97046533   -9402.9685    774.83015    297.16205 
    2140    0.9705288   -9401.9899    853.94359    292.98159 
    2150   0.97058978   -9401.2056    832.34305    299.99334 
    2160   0.97064824   -9400.1059    1006.0396    296.63214 
    2170   0.97070378   -9399.2611    1001.0518    297.34317 
    2180    0.9707564   -9398.2396    857.41696    297.11159 
    2190   0.97080654   -9397.0722    583.05508    298.40085 
    2200   0.97085494   -9396.1405    381.14405    306.33867 
    2210   0.97090209   -9395.1059    568.64362    302.86666 
    2220   0.97094761   -9394.3862     610.4547    305.71976 
    2230   0.97099134   -9394.0088    527.35766    310.00023 
    2240   0.97103346   -9393.8061    639.22977    304.61222 
    2250   0.97107373    -9394.102    710.53427    307.41659 
    2260   0.97111185   -9394.4887     935.4845    302.79094 
    2270   0.97114725   -9394.9174     1073.798    300.16113 
    2280   0.97117953   -9395.7666    954.14039    306.47693 
    2290   0.97120896   -9396.6531    928.40452     304.0809 
    2300   0.97123564   -9397.7741    1001.2966    300.27018 
    2310   0.97125938   -9399.1317    1074.7175    301.30198 
    2320   0.97127996   -9400.6199    1071.0858    303.12937 
    2330   0.97129741   -9402.4593    1008.1201    303.87325 
    2340   0.97131185   -9404.4952    1069.4838    302.50878 
    2350   0.97132317   -9406.6554     1105.698    299.52445 
    2360   0.97133127   -9409.2406    959.63572     305.1362 
    2370   0.97133648   -9412.1676    936.43144    307.79092 
    2380   0.97133891   -9415.5725    1005.2108    305.14878 
    2390   0.97133839   -9419.2979    1011.4735    300.01427 
    2400   0.97133496   -9423.5226    819.69116    304.32925 
    2410   0.97132906   -9428.1065    766.54263    303.66816 
    2420    0.9713209   -9433.0719    722.50351    302.62365 
    2430   0.97131064   -9438.5305    560.12204    307.01216 
    2440   0.97129874    -9444.505    415.51083    309.38297 
    2450   0.97128558   -9451.0351    375.74235    309.57246 
    2460   0.97127128   -9457.8531    462.02778    306.95071 
    2470   0.97125563   -9464.9791    540.13644    304.31199 
    2480    0.9712384      -9471.7    628.67084    297.91698 
    2490   0.97121934   -9478.1941    641.07538    296.53454 
    2500   0.97119841   -9484.1963    535.98202    303.87582 
    2510   0.97117586    -9489.965    527.57655    302.88698 
    2520   0.97115175   -9495.1196    631.38176    294.01128 
    2530   0.97112582   -9499.6645    691.15772    291.66227 
    2540   0.97109785   -9503.5953    701.68721    295.89867 
    2550    0.9710678   -9506.7099    739.09745    290.36664 
    2560   0.97103566   -9509.4251    489.17463    296.05159 
    2570   0.97100203   -9511.8489    352.06355    300.31659 
    2580   0.97096729    -9513.839    521.12651    295.09746 
    2590   0.97093104   -9515.7538    656.30604    290.84692 
    2600    0.9708929   -9517.1063    652.37496    288.37311 
    2610    0.9708529    -9518.285    441.20624     294.4389 
    2620   0.97081152   -9519.0179    427.37157    290.74099 
    2630    0.9707689   -9519.7513    412.44783    296.15773 
    2640     0.970725   -9520.1593    578.74716     296.1014 
    2650   0.97067942   -9520.5609    730.41115    294.90922 
    2660   0.97063168   -9520.7755    845.56649    291.18754 
    2670   0.97058151   -9520.9146    774.80318    293.97885 
    2680   0.97052905   -9521.0032    713.71261     296.4696 
    2690   0.97047449   -9520.7125    671.55087    289.92971 
    2700   0.97041809   -9520.6451    215.03723    298.17804 
    2710   0.97036099   -9520.3416   -116.65808    303.82928 
    2720   0.97030413   -9520.1267   -19.395203    295.82043 
    2730   0.97024732   -9519.9466    206.58411    286.65549 
    2740   0.97019001   -9519.5601    142.24963    289.74928 
    2750   0.97013228   -9518.8813     9.515244    294.07993 
    2760   0.97007448   -9517.8347    46.110392    291.71402 
    2770   0.97001653   -9516.7714    110.84545    291.43441 
    2780   0.96995828   -9515.6094    112.30046    293.81752 
    2790   0.96989968   -9514.0855    175.24651    290.56702 
    2800   0.96984059   -9512.5661    210.08871    291.84688 
    2810   0.96978086    -9510.708    303.76688    289.00153 
    2820    0.9697203   -9508.8576    200.49481    294.93525 
    2830   0.96965911   -9506.6404    177.10254    295.48791 
    2840   0.96959743   -9504.4443    77.966193    297.30103 
    2850    0.9695355   -9502.2297    83.337468    296.09307 
