
variable systemNsize equal 10
variable rndSeed equal 1234
variable Nrun equal 500000
variable Nstab equal 5000
variable NdumpStats equal 10
variable NdumpFrames equal 10
variable Text equal 298.0
variable Pext equal 1.0

units real
    # g/mol, A, fs, Kcal/mol, K, atm, g/cm^3
atom_style full
read_data SPCE.data
  orthogonal box = (0 0 0) to (3.1 3.1 3.1)
  1 by 2 by 3 MPI processor grid
  reading atoms ...
  3 atoms
  scanning bonds ...
  2 = max bonds/atom
  scanning angles ...
  1 = max angles/atom
  reading bonds ...
  2 bonds
  reading angles ...
  1 angles
  2 = max # of 1-2 neighbors
  1 = max # of 1-3 neighbors
  1 = max # of 1-4 neighbors
  2 = max # of special neighbors
  special bonds CPU = 0.000652075 secs
  read_data CPU = 0.00357103 secs

replicate ${systemNsize} ${systemNsize} ${systemNsize}
replicate 10 ${systemNsize} ${systemNsize}
replicate 10 10 ${systemNsize}
replicate 10 10 10
  orthogonal box = (0 0 0) to (31 31 31)
  1 by 2 by 3 MPI processor grid
  3000 atoms
  2000 bonds
  1000 angles
  2 = max # of 1-2 neighbors
  1 = max # of 1-3 neighbors
  1 = max # of 1-4 neighbors
  2 = max # of special neighbors
  special bonds CPU = 0.000388861 secs
  replicate CPU = 0.00206423 secs

include SPCE.long
# Original model from Berendsen et al, J Phys Chem 91:6269 (1987)
# Charges and geometry are specified in the ".data" file.

mass 1 1.00794 # H
mass 2 15.9994 # O

pair_style lj/cut/coul/long 10.0
    # LJ_Rcut (Coul_Rcut)
pair_modify tail yes
    # assumtions and approximations:
    # 1) 3d bulk homogeneous liquid (+)
    # 2) RDF is unity beyond the cutoff
    # 3) It's computed at the begining of the run
    # 4) atoms don't feel additional energy but it's added to the PE etc
kspace_style pppm 1.0e-5
    # accuracy - desired relative error in forces

pair_coeff 1 1 0.00000 0.000
pair_coeff 1 2 0.00000 0.000
    # TODO - I would put here the sizes of H and O atoms instead of one big LJ repulsion from the O atom. What "e" to choose is still a question.
pair_coeff 2 2 0.65 3.166
    # epsilon, sigma, [LJ_Rcut, [Coul_Rcut]]
    # distance between H and O is 1.0 so 3.166 > 1.0 accounts for the size of a molecule as a whole
    # I guess the major part in forces inside a molecule are indeed due to OH and HOH (angle) bondings, so computing LJ and Coul for them would be practically a waste of time so it may be ommitted. So I see only an optimizational reason to set LJ coefs to 0 for H atoms inside a molecule. However here (as far as I understand) we set all LJ coefs to 0. I understand LJ is a short-rage potential so its contribution can be neglegible compared to Coul, but it's not obvious for me why it actually is.
    # TODO - there might be a more correct way to ommit unnecessary interaction by using special_bond

bond_style harmonic
    # E = k(r-r0)^2
bond_coeff 1 0.0 1.0
    # bondID k r0
    # ? - how does k=0 make sense?
    # Is this to formaly bond atoms but actual bonding is done by rattle?

angle_style harmonic
angle_coeff 1 0.0 109.47
    # ? - same, how does k=0 make sense?


velocity all create ${Text} ${rndSeed}
velocity all create 298 ${rndSeed}
velocity all create 298 1234

fix removeMomentum all momentum 1 linear 1 1 1 angular
    # 1 - adjust the momentum every 1 timesteps
    # linear 1/0 1/0 1/0 - zero the P_x/y/z
    # angular - zero angular momentum (TODO - add "angular" here?)
    # scale - scale velocities after the adjustment so T is conserved (TODO - add "scale" here?)

fix stab_iso all npt temp ${Text} ${Text} $(50.0*dt) iso ${Pext} ${Pext} $(500.0*dt)
fix stab_iso all npt temp 298 ${Text} $(50.0*dt) iso ${Pext} ${Pext} $(500.0*dt)
fix stab_iso all npt temp 298 298 $(50.0*dt) iso ${Pext} ${Pext} $(500.0*dt)
fix stab_iso all npt temp 298 298 50 iso ${Pext} ${Pext} $(500.0*dt)
fix stab_iso all npt temp 298 298 50 iso 1 ${Pext} $(500.0*dt)
fix stab_iso all npt temp 298 298 50 iso 1 1 $(500.0*dt)
fix stab_iso all npt temp 298 298 50 iso 1 1 500
    # Tstart,Tstop = external temperature at start/end of run
    # Tdamp = temperature damping parameter (time units)
    # temp - for thermostat, iso - for barostat

fix stab_constrain all rattle 1.0e-5 100 0 b 1 a 1
  0 = # of size 2 clusters
  0 = # of size 3 clusters
  0 = # of size 4 clusters
  1000 = # of frozen angles
  find clusters CPU = 0.000324965 secs
    # fix ID group-ID shake tol iter N constraint1 value1 ...
    # iter - max # of iterations in each SHAKE solution
    # print SHAKE statistics every N many timesteps (0 = never)
    # b - bonds, a - angles
    # b 1 - bonds of type 1
    # a 1 - bonds of type 1
    # shake adds forces to make the displacement satisfy constraints - e.g. |r_ij|=d
    # rattle does the same and additionally it refines velocities - e.g. (|r|)'_t = 0.
    # *should be defined after other force- and v- modifiers since it doesn't account for them

thermo_style custom step density press temp
thermo ${NdumpStats}
thermo 10
run ${Nstab}
run 5000
PPPM initialization ...
  using 12-bit tables for long-range coulomb (src/kspace.cpp:332)
  G vector (1/distance) = 0.305114
  grid = 27 27 27
  stencil order = 5
  estimated absolute RMS force accuracy = 0.00306414
  estimated relative force accuracy = 9.22755e-06
  using double precision FFTW3
  3d grid and FFT values/proc = 10880 3645
Neighbor list info ...
  update every 1 steps, delay 10 steps, check yes
  max neighbors/atom: 2000, page size: 100000
  master list distance cutoff = 12
  ghost atom cutoff = 12
  binsize = 6, bins = 6 6 6
  1 neighbor lists, perpetual/occasional/extra = 1 0 0
  (1) pair lj/cut/coul/long, perpetual
      attributes: half, newton on
      pair build: half/bin/newton
      stencil: half/bin/3d/newton
      bin: standard
Per MPI rank memory allocation (min/avg/max) = 9.834 | 10.02 | 10.29 Mbytes
Step Density Press Temp 
       0    1.0041648    50479.628    296.38482 
      10   0.99700539    41713.557     402.8505 
      20   0.97937175    22789.155    901.49031 
      30   0.96177521     15218.77    1056.9103 
      40   0.94867849    14748.859    882.75667 
      50   0.93765744    12918.763    789.12955 
      60   0.92722841    10901.396    728.08032 
      70   0.91735262     9254.458    678.18899 
      80   0.90834111    7784.9475    640.07442 
      90   0.90040603    6220.0046    627.11559 
     100   0.89358934    5316.5461    588.74077 
     110   0.88771626     4261.079    559.36092 
     120   0.88266744    2926.2155    546.81714 
     130   0.87841205    2181.7535     504.6737 
     140   0.87484694    1355.6965    477.37645 
     150   0.87191727    556.54645    454.37829 
     160   0.86960843   -205.19253    442.33721 
     170   0.86791532   -721.53417      426.825 
     180   0.86680305   -1113.2129    409.46333 
     190   0.86622839   -1501.7972    400.30291 
     200   0.86616772      -1732.1    384.95868 
     210    0.8665793   -1911.4788    371.21185 
     220   0.86742329   -2099.6493    364.72343 
     230   0.86867487   -2288.2038    362.45793 
     240   0.87031196   -2225.7725    347.17569 
     250   0.87226673   -2220.3783    338.77046 
     260   0.87448338   -2271.1277    334.29506 
     270   0.87692584   -2157.7234     325.4055 
     280   0.87952499   -1937.3082    316.86993 
     290   0.88219013   -1701.8362    309.76025 
     300   0.88484617   -1634.8818     304.3503 
     310   0.88747329   -1772.9221    305.37176 
     320    0.8901026   -1829.7784    301.48519 
     330   0.89274758   -1815.5351    303.72877 
     340   0.89539094   -1512.5218    295.67327 
     350   0.89795816     -1231.09    286.92605 
     360    0.9003909   -1173.1951    287.95332 
     370   0.90269297   -1115.1442    288.47949 
     380   0.90487322   -957.52677    286.06989 
     390   0.90692039   -902.54709    287.20466 
     400   0.90884749   -968.66976    289.92507 
     410   0.91069552   -1049.7582    296.99073 
     420   0.91249865    -928.6362    296.02121 
     430   0.91424304   -792.46129    294.04345 
     440   0.91590759     -717.948    295.39402 
     450   0.91748618   -574.99496    290.22473 
     460   0.91896475   -573.94164    292.76504 
     470   0.92035953   -622.63244    294.04262 
     480   0.92170262   -722.76282    300.74746 
     490   0.92302317   -558.41258    295.71951 
     500   0.92429446    -459.3076    293.66058 
     510   0.92549625    -370.3624    291.61963 
     520   0.92662127   -380.69936    296.52599 
     530   0.92768141   -355.44995    298.24365 
     540   0.92868383   -274.30051    294.59699 
     550    0.9296187   -216.13623    295.45982 
     560   0.93048027    -162.3768     298.9476 
     570   0.93126451   -68.617708    298.74624 
     580   0.93196352   -132.02419    302.32223 
     590    0.9326063    -268.5249    306.28362 
     600   0.93323456   -232.30767    300.96937 
     610   0.93384987    -314.3482    306.49251 
     620   0.93447022   -357.95152    310.44428 
     630   0.93510624   -211.67406    304.25863 
     640   0.93571967     45.43962    289.48236 
     650   0.93625791   -87.520468    290.43518 
     660   0.93675471   -248.50864    293.31071 
     670   0.93726011   -334.73285    297.29832 
     680   0.93779816   -442.09981    304.76244 
     690   0.93838846   -302.51345    296.86108 
     700   0.93899929    -234.0984    292.78319 
     710   0.93961017   -319.80877    294.25965 
     720   0.94024327   -423.31338    296.43105 
     730   0.94092026   -364.78737    295.45202 
     740   0.94162452    -259.9318    295.04422 
     750   0.94232445   -154.54201    291.24536 
     760    0.9429995   -280.89112     295.5347 
     770   0.94368169   -440.10075    304.07912 
     780   0.94440622   -269.76539    300.27936 
     790   0.94512974    22.661679    291.88969 
     800   0.94577511    195.58727    292.25029 
     810    0.9463016    238.37999    298.63426 
     820   0.94670532    347.62927     299.5409 
     830   0.94696883    519.38532    296.08864 
     840   0.94706216    603.28505    294.86291 
     850   0.94697982    534.82042    295.22922 
     860   0.94675971    272.65425    299.92429 
     870   0.94648585   -39.137268     308.8097 
     880   0.94623977    -32.35574     305.3209 
     890   0.94602795   -5.2546816    305.44135 
     900   0.94583176    168.75347     297.9229 
     910   0.94561636    7.1581767    299.60057 
     920   0.94542213   -335.71753    300.16321 
     930   0.94534357   -689.19902    303.32498 
     940   0.94545717   -692.07392    300.97676 
     950   0.94575389   -543.87001    297.92197 
     960   0.94618064   -493.88901    298.55981 
     970   0.94670854    -362.6407    292.61468 
     980   0.94729291   -151.37895    286.84065 
     990   0.94787129    28.881852    284.48699 
    1000   0.94839684    31.659916    290.09363 
    1010   0.94887151   -93.777797    299.66972 
    1020    0.9493263   -6.1306048    294.34726 
    1030   0.94975307   -112.71731    297.34889 
    1040   0.95017338   -146.18952    295.29089 
    1050   0.95060538   -267.31553    301.42291 
    1060   0.95107015   -102.22078    299.02639 
    1070   0.95152364    236.89769    290.20531 
    1080   0.95188561    171.88832    299.87422 
    1090   0.95216586    179.93496    301.80022 
    1100   0.95237471      125.303    308.19941 
    1110   0.95252778     175.7329    305.48969 
    1120   0.95262145    251.01566    294.49017 
    1130   0.95264598    61.471421    294.44557 
    1140   0.95265429   -241.12233    303.21482 
    1150   0.95272451    -366.7782    306.49077 
    1160   0.95289119   -356.71034    304.64114 
    1170   0.95314274   -181.68109     299.2056 
    1180   0.95342775    41.267277    294.19898 
    1190    0.9536833    168.75902    291.89678 
    1200   0.95387458    183.01524    294.43954 
    1210   0.95399947    187.41236    297.58864 
    1220   0.95406302    149.69487    301.88704 
    1230   0.95407748    133.78543    303.03708 
    1240   0.95405031    205.24866    298.24466 
    1250   0.95397008    172.73138    296.87513 
    1260   0.95384935    5.7941548    299.84431 
    1270   0.95373517   -186.17049    304.75983 
    1280   0.95367398   -125.59093    298.99475 
    1290   0.95365575   -73.052152    294.50419 
    1300   0.95365809    29.138526    288.49271 
    1310   0.95365591   -8.9611889    293.75334 
    1320   0.95365446    -49.85583     296.1088 
    1330   0.95366848   -90.586982    295.06816 
    1340   0.95371046   -195.40036    298.69045 
    1350   0.95380003   -82.581164    294.42062 
    1360   0.95390641     119.8505    293.04099 
    1370   0.95396953    356.86397    292.94969 
    1380   0.95392654     516.1939    291.33979 
    1390   0.95374687    338.54474    298.98447 
    1400   0.95347983    137.72978    302.72624 
    1410   0.95318776    37.397973    301.45516 
    1420   0.95290205   -12.963131    302.39394 
    1430   0.95263308     95.71093    295.52627 
    1440   0.95235737    66.879999    296.19084 
    1450   0.95207872   -21.940396    301.31709 
    1460   0.95181743    13.075831    300.73728 
    1470   0.95157066   -80.357188    303.29609 
    1480   0.95135905   -141.98933    301.08709 
    1490   0.95120019   -148.08193    296.95527 
    1500   0.95109312   -116.37111    295.12242 
    1510   0.95102574   -75.312323    296.33801 
    1520   0.95098462   -109.17803    303.49645 
    1530   0.95097291   -38.221665    300.96328 
    1540   0.95097585   -84.400528    305.30955 
    1550   0.95099817   -13.759079    302.25848 
    1560   0.95102254    130.25715    291.64244 
    1570   0.95101628     16.17003    291.41945 
    1580   0.95100852   -252.74096    297.00492 
    1590   0.95107539   -551.81059    302.20549 
    1600   0.95129377   -646.17657    303.30056 
    1610    0.9516833   -534.23695    304.93314 
    1620    0.9522029   -264.61187    301.30632 
    1630   0.95277308     27.67751    294.35021 
    1640   0.95331187    162.39335    294.49097 
    1650   0.95377806    224.05252    293.47842 
    1660     0.954162    148.63762    294.16156 
    1670    0.9544839    75.467136    292.34723 
    1680   0.95477234   -79.662919    295.70419 
    1690   0.95506868   -178.79008    294.21964 
    1700   0.95540711   -336.87021     298.6432 
    1710   0.95581747   -158.95917    298.63971 
    1720   0.95625294    120.92093    296.31231 
    1730    0.9566382    231.89244    295.48064 
    1740   0.95693641    403.23328    289.01073 
    1750   0.95710995    418.86658    290.94243 
    1760   0.95715651    335.09657    290.90501 
    1770   0.95710862     133.9196    288.13836 
    1780   0.95702918   -183.63775    297.03558 
    1790   0.95699664   -170.23887    298.04315 
    1800   0.95701412   -88.512439    300.81326 
    1810    0.9570555    8.8298567    301.60221 
    1820   0.95709334    102.17211     301.8772 
    1830   0.95709962    187.75113     300.4918 
    1840   0.95705628    148.40765    303.66836 
    1850    0.9569703    94.043651    309.27304 
    1860   0.95685875    97.172724    307.94768 
    1870   0.95672551    34.929641    308.74825 
    1880   0.95658816   -68.614612    307.75003 
    1890    0.9564741   -78.310364    299.74902 
    1900   0.95639217   -225.63117    304.36163 
    1910   0.95637291   -244.92277    307.43853 
    1920   0.95642521   -227.51375    308.79163 
    1930   0.95653798   -110.30322    303.32996 
    1940   0.95667723    72.876096    292.22636 
    1950   0.95679983   -59.784307    291.23167 
    1960   0.95693978   -398.25424     297.6168 
    1970   0.95718529   -569.67078    296.00592 
    1980   0.95758552    -619.5787    294.93759 
    1990   0.95814799   -527.15357    294.31881 
    2000   0.95884166   -350.15477    292.42358 
    2010   0.95961113   -109.20236    288.81162 
    2020   0.96038654    78.340812    290.10189 
    2030     0.961115    148.93019    288.81002 
    2040   0.96177869    92.092932    290.80189 
    2050   0.96238869    146.79132    290.34797 
    2060   0.96293837     104.2088    296.09365 
    2070   0.96343212    229.76913     295.1656 
    2080   0.96384088    429.99577    290.26641 
    2090   0.96412034    303.51007    294.96025 
    2100   0.96430313    95.011559    300.49273 
    2110   0.96444806    34.572144    302.06336 
    2120   0.96457783    12.429829     304.9203 
    2130   0.96469821     49.90517    308.99693 
    2140   0.96479264    370.17614    299.34664 
    2150    0.9647798    633.45793    292.50195 
    2160   0.96458772    694.70906    293.51841 
    2170   0.96420283     611.2009    294.72495 
    2180   0.96365648    393.38641    296.95673 
    2190   0.96301695    65.113082    301.83793 
    2200   0.96237582   -146.39258    301.49952 
    2210   0.96179794   -283.57885    304.29013 
    2220   0.96131384   -159.88648    301.14855 
    2230   0.96089164   -4.0966882     298.2609 
    2240   0.96048761   -15.320416      298.942 
    2250    0.9601053   -181.95168    298.77467 
    2260   0.95978854   -356.24225     301.1509 
    2270   0.95958327   -444.82173     304.0622 
    2280   0.95951019   -420.47497    304.73397 
    2290   0.95955839   -247.37238    298.63849 
    2300   0.95968308   -219.44842    301.47062 
    2310   0.95986269   -70.368759    299.20834 
    2320   0.96005792    95.480736    294.76985 
    2330   0.96022263    129.86431    295.74647 
    2340   0.96034558    111.22244     298.2814 
    2350   0.96042893     208.4928    296.36202 
    2360   0.96045096    275.87373    290.76958 
    2370    0.9603968    178.58042    291.54839 
    2380   0.96029106    77.361829    296.03369 
    2390   0.96015992    149.63518    296.73514 
    2400   0.95998979    193.58033    300.50569 
    2410   0.95976738    190.94283     303.0342 
    2420   0.95949562    135.57178    305.89869 
    2430   0.95918858    148.35393    305.51067 
    2440   0.95884055    341.97828    293.92201 
    2450   0.95841022     314.3154    290.30646 
    2460   0.95790207    123.27488    294.09058 
    2470   0.95736629    17.388624    293.01982 
    2480   0.95684081   -157.52328    295.11563 
    2490   0.95637201   -285.77537    298.63364 
    2500   0.95599624   -319.36063    301.64077 
    2510   0.95571784   -160.11693    296.32485 
    2520   0.95549651   -115.80223    300.36683 
    2530   0.95530975    9.1436446    299.80566 
    2540   0.95512159     242.4341    292.75656 
    2550   0.95487323    271.68777    291.64457 
    2560   0.95455442    169.06119    288.07255 
    2570   0.95420277   -235.19626    299.79379 
    2580   0.95391801   -386.49877    307.70553 
    2590   0.95374231   -129.57965    295.51762 
    2600   0.95361837   -128.21115    299.14402 
    2610   0.95353179    -116.3041    298.35416 
    2620   0.95348312    -159.9872    299.18874 
    2630    0.9534797   -136.15682    302.94366 
    2640   0.95350936    140.61193      294.575 
    2650   0.95349919    392.64458    286.99957 
    2660    0.9533853    249.82222    295.22676 
    2670   0.95319946     34.25871    301.57649 
    2680   0.95300582   -103.13803    303.49487 
    2690   0.95283896   -20.909676    299.30577 
    2700   0.95268415   -37.352078    305.86686 
    2710   0.95253717     92.10049    301.36096 
    2720   0.95237185    91.088217    299.94051 
    2730   0.95218328    61.528183     301.3461 
    2740   0.95197729    127.60475    299.51829 
    2750   0.95173578    201.29177    296.12081 
    2760   0.95144382    89.907345    298.18682 
    2770   0.95113475   -216.34697     304.7365 
    2780    0.9508892    -380.6677    300.88104 
    2790   0.95076188   -536.49567     301.9208 
    2800   0.95078784   -493.56007    300.48258 
    2810   0.95095633    -344.8147    296.32486 
    2820   0.95122237   -172.20555    296.41863 
    2830   0.95153354    45.374979    293.33183 
    2840   0.95183304    41.451756    293.02118 
    2850   0.95212254   -164.30593    297.98643 
    2860   0.95245311   -267.75539    301.09296 
    2870   0.95285671    -272.1531    301.58121 
    2880   0.95333142   -113.31388    295.61915 
    2890   0.95383707    37.236789    292.67753 
    2900   0.95432848    128.50775    291.99831 
    2910   0.95477992    125.78349     293.3107 
    2920   0.95518992    112.32468    293.23808 
    2930   0.95556285    107.11871    291.50606 
    2940   0.95590448   -29.405105    299.37016 
    2950   0.95624389    55.456602    299.27443 
    2960   0.95656379    216.83411    295.13469 
    2970   0.95681818    327.80446    289.37319 
    2980   0.95698434    95.025874    298.73244 
    2990   0.95711157    111.06015    299.39024 
    3000   0.95720461     275.2404     297.0972 
    3010   0.95721745    389.05699    293.47065 
    3020   0.95711966    381.86564    293.37898 
    3030   0.95690908    386.87564    292.00655 
    3040   0.95658947    316.67522    294.60768 
    3050   0.95617875    197.56214     300.3006 
    3060   0.95571383     15.34327    305.61731 
    3070   0.95524624   -139.22871    309.36753 
    3080   0.95481696   -86.252631    306.91088 
    3090    0.9544123    94.832818    303.82385 
    3100    0.9539833    234.23704    302.13862 
    3110   0.95349225    188.60194    301.13116 
    3120   0.95295123    38.541014    302.85883 
    3130   0.95239887   -49.196917    303.74601 
    3140   0.95186338   -148.30748    306.11447 
    3150   0.95137327   -189.82987    303.95167 
    3160   0.95094105   -191.28604    300.54087 
    3170   0.95056619   -154.51884    294.78381 
    3180   0.95024554   -329.59748    298.83971 
    3190   0.95001634   -325.08267    293.55128 
    3200   0.94988625   -316.55474    291.26653 
    3210   0.94984558    -209.9689    290.28092 
    3220   0.94986829   -163.24383    293.19885 
    3230   0.94993874   -163.27251    296.68472 
    3240   0.95005781   -168.75932    296.65952 
    3250   0.95022229    10.579006    286.30685 
    3260   0.95039321   -42.826754    292.91348 
    3270    0.9505722    -27.98611     298.4805 
    3280   0.95075451    155.24798     298.2158 
    3290   0.95089011    359.33981     292.4017 
    3300   0.95092587    332.52004    294.34294 
    3310   0.95086622    142.06363     304.9175 
    3320   0.95075703    207.24386    294.77867 
    3330   0.95060028   -76.060543    300.97573 
    3340   0.95046027   -244.58651    305.45034 
    3350   0.95038589   -165.38057    303.65214 
    3360   0.95036078   -70.393729    299.07877 
    3370   0.95036177   -116.97358    295.32297 
    3380   0.95040296   -340.02546    302.96243 
    3390   0.95053951   -412.93096     304.2311 
    3400   0.95079922   -413.38387    302.39612 
    3410   0.95118528     -482.259    303.92491 
    3420   0.95171455   -491.83926    306.75661 
    3430   0.95238127   -128.98674    297.51736 
    3440    0.9530954    97.716159    295.60861 
    3450   0.95378906    83.281137    300.89314 
    3460   0.95445412    260.48248    300.53988 
    3470   0.95504454    465.66558    299.92412 
    3480   0.95550266    553.41928    292.68772 
    3490   0.95580777    368.77189    295.58872 
    3500    0.9560005    271.94758    297.47215 
    3510   0.95611424    192.88261    297.81634 
    3520   0.95616964    190.56593    293.44468 
    3530    0.9561709    168.46016    289.57726 
    3540   0.95612635   -10.574728    290.99895 
    3550    0.9560842   -171.91649    293.49922 
    3560   0.95608873   -156.87157    293.60343 
    3570    0.9561401   -125.97028    300.23674 
    3580   0.95622209     95.55642    298.20449 
    3590   0.95628059    211.04976    293.70922 
    3600   0.95628144    159.69828    294.52741 
    3610   0.95623343    157.12166    291.86948 
    3620    0.9561429    6.9237687    298.32491 
    3630   0.95604539   -67.267996     299.1451 
    3640    0.9559679   -113.70619     296.9072 
    3650   0.95592338   -105.75042     300.3496 
    3660   0.95590187    161.95196    296.63602 
    3670   0.95583457    359.18609    293.53963 
    3680   0.95566657    272.27243    295.02109 
    3690   0.95541765    80.915935    298.80465 
    3700   0.95513599    84.642627    294.93421 
    3710   0.95482894    44.651166    296.63226 
    3720   0.95450726   -85.517871    302.59703 
    3730   0.95420396   -124.34718    303.24413 
    3740   0.95393119    -64.50138    300.14646 
    3750   0.95367766   -131.76275    305.79306 
    3760   0.95345453   -103.84242    305.48877 
    3770   0.95326315   -126.74879    302.20067 
    3780   0.95310561   -125.71364     301.3949 
    3790   0.95298397   -159.82551    298.76953 
    3800   0.95291335   -378.98736    302.18079 
    3810   0.95294825    -382.4599    299.20897 
    3820   0.95309601   -296.02928    303.64169 
    3830   0.95333134   -148.18916    301.49631 
    3840   0.95362118   -157.23737    301.24611 
    3850    0.9539612   -130.23874    302.15938 
    3860   0.95434363   -13.500182    299.47477 
    3870   0.95473745    97.001786    298.42686 
    3880   0.95510878    243.27877    294.58773 
    3890   0.95541608    348.27473    292.35214 
    3900   0.95563076    261.12985     293.9147 
    3910   0.95577208    128.15653    293.55207 
    3920   0.95587619    66.555897     292.5398 
    3930   0.95596159    24.262522    293.30891 
    3940   0.95604097   -4.6732625    295.71054 
    3950   0.95612041    70.771272    291.40483 
    3960   0.95618284    125.74868    285.43698 
    3970   0.95621466    11.272284    292.80245 
    3980   0.95623332    159.30416    292.98655 
    3990   0.95621555     8.920468    301.86066 
    4000   0.95618965   -64.357994    302.19297 
    4010   0.95618329   -83.962354    302.63415 
    4020   0.95619928   0.34983887    297.74878 
    4030    0.9562196    14.559943    297.86465 
    4040   0.95623884   -81.623169    306.53001 
    4050   0.95627426    105.82466    303.67961 
    4060   0.95627923    347.40574    301.18234 
    4070   0.95618421       424.42    298.65122 
    4080   0.95596794    176.97161    305.44084 
    4090   0.95568544    100.87438    300.44213 
    4100   0.95536811    32.072824    297.49458 
    4110   0.95503017    7.7596412    300.94386 
    4120   0.95467302    246.25939    288.22123 
    4130   0.95424539    106.12792    288.57311 
    4140   0.95377631   -185.37733    293.70504 
    4150   0.95334821   -463.77617    301.74018 
    4160    0.9530405   -566.19194    304.87104 
    4170   0.95288967   -455.92621    299.80907 
    4180   0.95287359   -393.53294    301.31225 
    4190   0.95297467   -335.69766    300.06853 
    4200   0.95317949   -280.45821    302.46868 
    4210   0.95347246   -200.10839    302.17559 
    4220   0.95383996   -303.70196    305.79577 
    4230   0.95430893   -358.94705    303.29725 
    4240    0.9548987   -243.93648    295.94778 
    4250   0.95557797   -41.952189     293.1763 
    4260   0.95629324    99.944966    292.22144 
    4270   0.95700253    207.40513     288.5675 
    4280   0.95767601    226.42849    288.39301 
    4290   0.95830468    144.61365    294.71898 
    4300   0.95890155    252.99691    291.48989 
    4310   0.95944362    301.93941    296.88529 
    4320    0.9599078    455.77217    289.91044 
    4330   0.96026342    256.27983    297.35647 
    4340    0.9605475    145.86917    303.65976 
    4350   0.96079425    121.95278    306.07933 
    4360    0.9610102    175.26208    304.89664 
    4370   0.96117697    437.20626    292.58694 
    4380   0.96122587     520.3111    295.36078 
    4390     0.961116    639.59604    292.19528 
    4400   0.96082047    440.96587    299.54193 
    4410   0.96037946     253.0884    303.58015 
    4420   0.95984649    137.66392    301.13334 
    4430   0.95925804   -101.89225     308.5531 
    4440    0.9586692   -31.984418    299.95621 
    4450     0.958079   -137.05249    299.31387 
    4460   0.95750851   -227.47928    299.97357 
    4470   0.95698454   -224.78951    301.46296 
    4480   0.95650786   -134.68968    298.00613 
    4490   0.95605813   -91.225545    295.16898 
    4500   0.95562382   -175.98994    293.40682 
    4510   0.95523407   -467.51641    296.35266 
    4520   0.95496869   -702.04322    299.33475 
    4530   0.95490157   -796.96948     303.2752 
    4540   0.95506533   -658.26652    296.72679 
    4550   0.95543655   -545.96316    294.61663 
    4560   0.95598378   -386.17921    297.73924 
    4570   0.95666277   -118.85282      298.859 
    4580    0.9574032    91.428671    299.69032 
    4590   0.95814546    199.81399    296.26874 
    4600   0.95886105    116.12022     298.9053 
    4610    0.9595672    13.834809    302.06298 
    4620   0.96029176    32.063313    303.50075 
    4630   0.96102498    297.21593    298.81952 
    4640   0.96169512    555.63081    294.15785 
    4650    0.9622281    565.56157    293.21779 
    4660   0.96261637    318.54314    296.24903 
    4670     0.962922    92.246734    298.13665 
    4680   0.96320428    143.91574    297.22738 
    4690    0.9634493    352.95501    293.73723 
    4700   0.96360078    421.04777    291.79777 
    4710   0.96363639    271.63713    293.04435 
    4720   0.96359332    59.473981    296.70589 
    4730   0.96352364     75.01592    295.43763 
    4740   0.96342688       214.62     289.9259 
    4750   0.96326986    140.65965    293.41547 
    4760   0.96306328    50.833759    299.03283 
    4770   0.96282984    64.731244    299.38458 
    4780   0.96257111    5.0047599    301.53309 
    4790   0.96229866     31.92184    300.54756 
    4800   0.96200727     59.23251    298.32921 
    4810   0.96168912   -7.7183059    297.95171 
    4820   0.96136272   -137.21869    301.58868 
    4830   0.96106128   -185.34985    305.29879 
    4840   0.96080012   -125.55948    305.53891 
    4850   0.96056495   -7.6357861     301.9301 
    4860   0.96032355    83.527335    299.69151 
    4870   0.96004701    208.23634    291.07238 
    4880   0.95970278    124.74415    292.73922 
    4890   0.95930686  -0.16410239    295.46177 
    4900   0.95889477   -102.56949    295.17699 
    4910   0.95849809   -245.87271    299.33837 
    4920   0.95815568   -341.08601    301.09723 
    4930   0.95790118   -411.47074    298.70438 
    4940   0.95775899   -419.58644    296.84341 
    4950   0.95773565   -331.87155    297.93549 
    4960   0.95781086   -202.26599    297.99074 
    4970   0.95795378   -175.33705    301.47602 
    4980   0.95815162   -8.8332182    299.25281 
    4990   0.95836052     179.7201    299.03697 
    5000   0.95852977    161.57466    303.08843 
Loop time of 28.7591 on 6 procs for 5000 steps with 3000 atoms

Performance: 15.021 ns/day, 1.598 hours/ns, 173.858 timesteps/s
99.4% CPU use with 6 MPI tasks x 1 OpenMP threads

MPI task timing breakdown:
Section |  min time  |  avg time  |  max time  |%varavg| %total
---------------------------------------------------------------
Pair    | 12.832     | 14.102     | 14.642     |  17.9 | 49.04
Bond    | 0.0033808  | 0.0040369  | 0.0057075  |   1.3 |  0.01
Kspace  | 6.1298     | 6.6472     | 7.8852     |  25.6 | 23.11
Neigh   | 1.2403     | 1.2415     | 1.2421     |   0.1 |  4.32
Comm    | 1.1902     | 1.3354     | 1.5043     |  11.5 |  4.64
Output  | 0.013061   | 0.014317   | 0.019986   |   2.1 |  0.05
Modify  | 4.7782     | 5.1186     | 5.4061     |  12.4 | 17.80
Other   |            | 0.2959     |            |       |  1.03

Nlocal:    500 ave 510 max 492 min
Histogram: 1 1 0 1 0 1 1 0 0 1
Nghost:    6776.67 ave 6792 max 6756 min
Histogram: 1 0 0 0 2 0 1 0 0 2
Neighs:    173612 ave 179029 max 160825 min
Histogram: 1 0 0 0 1 0 0 0 1 3

Total # of neighbors = 1041672
Ave neighs/atom = 347.224
Ave special neighs/atom = 2
Neighbor list builds = 258
Dangerous builds = 8
unfix stab_iso
unfix stab_constrain

reset_timestep 0
fix stab_iso all npt temp ${Text} ${Text} $(200.0*dt) iso ${Pext} ${Pext} $(5000.0*dt)
fix stab_iso all npt temp 298 ${Text} $(200.0*dt) iso ${Pext} ${Pext} $(5000.0*dt)
fix stab_iso all npt temp 298 298 $(200.0*dt) iso ${Pext} ${Pext} $(5000.0*dt)
fix stab_iso all npt temp 298 298 200 iso ${Pext} ${Pext} $(5000.0*dt)
fix stab_iso all npt temp 298 298 200 iso 1 ${Pext} $(5000.0*dt)
fix stab_iso all npt temp 298 298 200 iso 1 1 $(5000.0*dt)
fix stab_iso all npt temp 298 298 200 iso 1 1 5000
fix stab_constrain all rattle 1.0e-5 100 0 b 1 a 1
  0 = # of size 2 clusters
  0 = # of size 3 clusters
  0 = # of size 4 clusters
  1000 = # of frozen angles
  find clusters CPU = 0.000294924 secs

thermo_style custom step density etotal press temp
thermo_modify flush yes
    # insures the output is dumped in the file and not buffered or something
thermo ${NdumpStats}
thermo 10
dump trj all atom ${NdumpFrames} wat.lammpstrj
dump trj all atom 10 wat.lammpstrj

run ${Nrun}
run 500000
PPPM initialization ...
  using 12-bit tables for long-range coulomb (src/kspace.cpp:332)
  G vector (1/distance) = 0.303976
  grid = 27 27 27
  stencil order = 5
  estimated absolute RMS force accuracy = 0.00320927
  estimated relative force accuracy = 9.66461e-06
  using double precision FFTW3
  3d grid and FFT values/proc = 10880 3645
Per MPI rank memory allocation (min/avg/max) = 10.85 | 11.16 | 11.33 Mbytes
Step Density TotEng Press Temp 
       0   0.95852977   -9375.0547    126.63849    303.08843 
      10   0.95852957   -9375.1617    232.12089    298.69252 
      20   0.95852871   -9375.2262    302.98893    297.66517 
      30   0.95852701   -9375.5449    207.89902    302.80631 
      40   0.95852466   -9375.7491    163.00929    301.97807 
      50   0.95852184   -9376.1569    134.59467    301.25055 
      60   0.95851861    -9376.717    97.892128     308.6321 
      70   0.95851501   -9377.5778    290.89074    309.60977 
      80   0.95851051   -9378.6255    651.83092    300.19728 
      90   0.95850418   -9379.7877    758.56419    294.89147 
     100    0.9584957   -9381.2166    557.03899     301.7713 
     110   0.95848553   -9382.4767    446.31494    298.38104 
     120   0.95847408   -9383.8303    272.35914    298.45873 
     130   0.95846187   -9385.2844   -38.500754    306.53298 
     140   0.95844971   -9387.0703   -130.84789    302.48689 
     150   0.95843795   -9388.8936    -200.9498    298.18547 
     160   0.95842684   -9391.1339   -474.69206    307.05112 
     170   0.95841706   -9393.5257   -541.90243    308.22634 
     180    0.9584088   -9396.2221    -296.6345    296.88107 
     190   0.95840149   -9399.0722    -234.1552    297.26206 
     200   0.95839488    -9402.198   -281.51751    302.88872 
     210   0.95838905   -9405.2928   -222.11756    299.37445 
     220   0.95838393   -9408.7178   -271.59367    301.26886 
     230   0.95837958   -9412.1038   -308.35311    302.09398 
     240   0.95837616   -9416.1454   -382.62159    305.59398 
     250   0.95837382   -9420.2916   -304.57643    300.90007 
     260   0.95837236   -9424.4654   -94.025897    290.70283 
     270   0.95837123   -9428.5867   -80.083033    292.38744 
     280   0.95837039   -9432.9323   -342.00409    301.70213 
     290    0.9583705   -9437.1683   -440.02836    301.06122 
     300   0.95837189   -9441.7729   -423.24001     301.0717 
     310   0.95837448   -9446.0104    -216.8891    293.02274 
     320   0.95837777   -9450.3608   -191.13523    294.83326 
     330   0.95838159   -9454.2586   -107.77744    288.18803 
     340   0.95838582   -9457.8166   -266.49167    288.77747 
     350   0.95839087   -9461.3053   -626.48425    298.65998 
     360   0.95839769   -9464.5694   -754.23373    298.18082 
     370   0.95840672   -9467.8199   -775.86693    296.83125 
     380   0.95841802   -9470.6478   -685.82287    290.70957 
     390    0.9584314   -9473.2759   -759.93688    294.75089 
     400   0.95844698   -9475.6866    -671.7289    292.65568 
     410   0.95846454   -9477.8116   -554.65264    294.42652 
     420   0.95848368   -9479.6408   -310.96948    291.08109 
     430   0.95850379   -9481.3468   -231.70121    292.19125 
     440   0.95852459   -9482.3174   -169.09613    284.96629 
     450   0.95854595   -9483.2688   -261.76468    289.11539 
     460   0.95856802   -9483.7781   -219.46573    288.39208 
     470   0.95859078   -9484.0698   -262.96186    290.12946 
     480    0.9586143   -9484.1841   -296.43584    295.30409 
     490   0.95863864   -9483.8956    -142.8819    290.58951 
     500   0.95866347   -9483.6527   -131.17967    291.68094 
     510   0.95868869   -9483.3645   -160.81335    293.58854 
     520   0.95871434   -9482.6846   -52.206914    287.76982 
     530   0.95874023   -9482.1849   -121.35795    291.23314 
     540   0.95876646   -9481.2062   -210.69937     291.5926 
     550   0.95879336   -9480.1914   -382.80695    292.27719 
     560   0.95882137   -9479.1493    -484.1926    292.72605 
     570   0.95885081   -9477.9642    -495.3184    295.82245 
     580   0.95888165   -9476.6559   -256.95748    288.69812 
     590    0.9589133   -9475.4076   -147.00395    288.25961 
     600   0.95894542   -9474.0072    -262.8065    299.05689 
     610   0.95897825   -9472.6076   -170.04718     295.1854 
     620   0.95901163   -9471.3859   -148.59699    293.80352 
     630   0.95904547   -9469.9111   -192.66408    294.13845 
     640    0.9590799   -9468.6446   -279.64141    295.59042 
     650   0.95911511   -9467.3417   -216.12453    296.18634 
     660   0.95915095   -9465.9065   -61.165343    292.01117 
     670   0.95918704   -9464.5052    -86.85969    289.49422 
     680   0.95922347   -9463.1298    -338.3988    291.54627 
     690   0.95926089   -9461.5535   -556.63386    293.85113 
     700   0.95929991   -9459.9226   -600.01482    293.33232 
     710   0.95934072   -9458.3367   -606.04026    294.10754 
     720   0.95938333   -9456.7102   -625.89538    298.85688 
     730   0.95942776   -9455.1558   -568.85373     300.9445 
     740   0.95947383   -9453.6404    -362.3459    295.41138 
     750   0.95952099   -9452.0381    -125.7773    291.29458 
     760   0.95956856   -9450.5769    19.979976    290.98241 
     770   0.95961606   -9448.9721    181.60612    287.21882 
     780    0.9596631   -9447.1189    145.66485    289.41604 
     790   0.95970978    -9445.155   -86.472849    296.17453 
     800   0.95975671   -9442.9799   -294.77311    301.90405 
     810   0.95980452   -9441.1666   -499.81888    309.60465 
     820   0.95985376   -9439.6128   -508.96971    306.76213 
     830   0.95990449   -9438.4512   -432.26123    303.24461 
     840   0.95995654   -9437.4692   -394.83651    299.68435 
     850   0.96000977   -9436.5049   -301.61097    297.90054 
     860    0.9600639   -9435.5817   -145.26417    293.84298 
     870   0.96011855   -9434.7016   -243.85822    296.51401 
     880   0.96017394   -9433.6773   -388.46062    295.47255 
     890   0.96023052   -9432.6554    -583.8073    295.20757 
     900   0.96028883   -9431.5712   -743.17897    298.76685 
     910   0.96034926   -9430.4791   -594.64992    293.14113 
     920   0.96041148   -9429.3994   -410.66916    292.49456 
     930   0.96047494   -9428.1734   -249.33527    291.45038 
     940   0.96053916     -9426.62   -131.61611    287.12965 
     950    0.9606039   -9425.1015   -439.18724    299.13737 
     960    0.9606699    -9423.274   -661.32638    300.98588 
     970   0.96073784   -9421.6339   -677.90351    299.40066 
     980   0.96080779   -9420.1451   -652.15808    299.99363 
     990   0.96087967   -9418.7015   -516.11972    295.66434 
    1000   0.96095311   -9417.2505   -434.30503    296.29482 
    1010   0.96102787   -9415.4787   -390.26943    293.67365 
    1020   0.96110384   -9413.8371   -475.20533    295.14158 
    1030   0.96118123   -9412.0996   -579.38492    298.33886 
    1040   0.96126032   -9410.4528   -512.46696    295.63882 
    1050    0.9613409   -9408.3396    -260.9059    285.49887 
    1060   0.96142239   -9406.3869   -369.83996    295.19016 
    1070   0.96150494   -9404.0559   -413.09494    302.31342 
    1080   0.96158865   -9401.7782   -112.25683    296.82745 
    1090   0.96167275   -9399.6512    89.493168    298.59251 
    1100   0.96175661   -9397.4137    234.28011    297.87326 
    1110   0.96183986   -9395.3685    244.41571    297.45353 
    1120   0.96192245   -9393.1291    142.36535    295.71063 
    1130   0.96200471   -9391.0128   -160.19349    306.31112 
    1140   0.96208736   -9388.8673   -128.65906     304.4285 
    1150   0.96217039   -9387.0745    51.892137    298.67388 
    1160   0.96225333   -9385.1656    139.58479    293.22213 
    1170     0.962336   -9383.4184   -186.77288    307.06656 
    1180   0.96241914   -9381.7244     -272.089    307.58818 
    1190   0.96250311   -9380.2063   -275.59928    303.84746 
    1200   0.96258793   -9379.0348   -335.99937    308.35673 
    1210   0.96267372   -9378.0449    -273.9721    305.38058 
    1220   0.96276036   -9377.4649   -296.32522    311.86267 
    1230   0.96284782   -9377.0876   -84.962455    307.41214 
    1240   0.96293559   -9377.0186     99.70734    302.35175 
    1250   0.96302314   -9377.1468    136.35756    303.36478 
    1260   0.96311031   -9377.3885    149.24053    305.34848 
    1270   0.96319706   -9377.8755    149.67614    305.86322 
    1280    0.9632834   -9378.7762    89.947656     305.1865 
    1290   0.96336951   -9379.8769    21.710967    301.97794 
    1300   0.96345561   -9381.2365   -128.18591     304.4152 
    1310   0.96354213   -9382.8248   -290.60514    308.41583 
    1320   0.96362946   -9384.4867    -227.9334    299.74417 
    1330   0.96371751   -9386.6176   -220.72825    300.70199 
    1340   0.96380622   -9389.1114   -238.98895    306.80202 
    1350   0.96389562   -9391.8286   -166.69097    302.86775 
    1360   0.96398562   -9395.2317   -272.06628    307.29199 
    1370   0.96407635   -9398.9387   -101.26566    303.06275 
    1380   0.96416737   -9403.2399    185.01128    300.57699 
    1390    0.9642579   -9408.0483    308.16297    299.54116 
    1400   0.96434762   -9413.2041    158.82683    298.94511 
    1410   0.96443691   -9418.9909   -33.380488    303.58981 
    1420   0.96452624   -9425.4059    11.416988    302.16128 
    1430   0.96461552   -9432.2989    165.72424    299.98202 
    1440   0.96470434   -9439.4978    250.84098    296.76097 
    1450   0.96479252   -9446.9308    53.427769    301.68257 
    1460   0.96488054   -9454.6052   -188.80174    306.03636 
    1470    0.9649691   -9462.1692   -238.20919    301.12758 
    1480   0.96505834   -9469.4438   -131.68578    296.34271 
    1490   0.96514799   -9475.9953    5.4422869      293.971 
    1500   0.96523767    -9481.802    57.454179    292.40031 
    1510   0.96532723   -9486.8651   -14.390796    296.53895 
    1520    0.9654168   -9491.1998    76.033085      294.054 
    1530   0.96550616   -9494.8015    191.02751    291.64829 
    1540   0.96559498   -9497.7426    244.92803    289.01714 
    1550   0.96568312    -9499.912    217.27686    285.65882 
    1560   0.96577071   -9501.8439   -45.677376    296.20802 
    1570   0.96585837   -9503.0037   -101.74897    291.00485 
    1580   0.96594638   -9504.1507   -181.26559    291.65492 
    1590   0.96603487   -9504.9939   -52.044368    286.72355 
    1600   0.96612359   -9505.5423   -88.837663    291.18724 
    1610   0.96621257    -9505.806   -168.54902    295.95354 
    1620     0.966302   -9505.8478   -50.761548    288.97067 
    1630   0.96639162    -9505.665     16.69316    284.96135 
    1640   0.96648127   -9505.3433     -114.558    290.68594 
    1650   0.96657124   -9504.7032   -242.26561    295.19103 
    1660    0.9666619   -9504.0019   -236.55653    295.80721 
    1670   0.96675321   -9503.1389   -49.975493    291.29029 
    1680   0.96684467   -9502.0584    185.01236    288.52635 
    1690   0.96693562    -9501.029    337.78291    290.17157 
    1700   0.96702556   -9499.4812    526.04917    283.93129 
    1710   0.96711406   -9497.8878    401.64573    288.11622 
    1720   0.96720139   -9495.8548    158.92987     294.2316 
    1730   0.96728825   -9493.7946   -29.268125    296.36316 
    1740   0.96737516   -9491.5621   -43.720526    297.77826 
    1750   0.96746218   -9489.5925    28.284873    297.07562 
    1760   0.96754913   -9487.1796    100.27772    292.23273 
    1770   0.96763583   -9485.0183    87.721497    296.15636 
    1780   0.96772219   -9482.7382    259.33285    295.38972 
    1790   0.96780781   -9480.4266    432.68602    293.36935 
    1800   0.96789218   -9477.8326    468.97312     292.9084 
    1810   0.96797525   -9475.2859    202.58004    299.71087 
    1820   0.96805769   -9472.6402     20.32441    300.70399 
    1830   0.96814004   -9470.0032    68.154206    294.05998 
    1840   0.96822225   -9467.6845   -1.2488709    299.61732 
    1850   0.96830439   -9464.9883    113.71152    297.74424 
    1860   0.96838619   -9462.3638    268.45247    291.21877 
    1870   0.96846728   -9459.6939    199.35606    292.15717 
    1880   0.96854782   -9456.7797   -32.545987    296.20641 
    1890   0.96862841   -9453.9895   -170.16383    300.49632 
    1900   0.96870947   -9451.2192   -153.44399    297.53895 
    1910   0.96879101   -9448.3671   -200.56945    295.33788 
    1920   0.96887317    -9445.729   -329.04288    301.20142 
    1930   0.96895624   -9442.9285   -247.84973    299.89826 
    1940   0.96904001   -9440.1337   -43.076427    295.43597 
    1950    0.9691239   -9437.5578    169.70005    295.38176 
    1960   0.96920731   -9434.9263    315.97924    296.03746 
    1970   0.96928983   -9432.3773    322.86748    300.89869 
    1980   0.96937135   -9429.5798    442.46935    296.25917 
    1990    0.9694516   -9426.9755    499.32876    293.58456 
    2000   0.96953041   -9424.3717    430.12343    298.11477 
    2010   0.96960792   -9421.8216    420.05047    302.50374 
    2020   0.96968417   -9419.3591    415.27951    304.45596 
    2030   0.96975918    -9417.031    480.16416    298.18049 
    2040   0.96983282    -9414.882    376.28708    300.07305 
    2050   0.96990538   -9412.9382    140.53233    306.27037 
    2060   0.96997747   -9410.9734    107.05134    304.02923 
    2070   0.97004926   -9409.4463    101.78392    303.34625 
    2080   0.97012074   -9407.9243    104.50262    304.43185 
    2090   0.97019188   -9406.6658    240.44787    300.87263 
    2100   0.97026231   -9405.5249    328.06633    304.51816 
    2110   0.97033172   -9404.5602    532.55639     302.9467 
    2120   0.97039957    -9403.618    722.08947    298.34761 
    2130   0.97046533   -9402.9685    774.83015    297.16205 
    2140    0.9705288   -9401.9899    853.94359    292.98159 
    2150   0.97058978   -9401.2056    832.34305    299.99334 
    2160   0.97064824   -9400.1059    1006.0396    296.63214 
    2170   0.97070378   -9399.2611    1001.0518    297.34317 
    2180    0.9707564   -9398.2396    857.41696    297.11159 
    2190   0.97080654   -9397.0722    583.05508    298.40085 
    2200   0.97085494   -9396.1405    381.14405    306.33867 
    2210   0.97090209   -9395.1059    568.64362    302.86666 
    2220   0.97094761   -9394.3862     610.4547    305.71976 
    2230   0.97099134   -9394.0088    527.35766    310.00023 
    2240   0.97103346   -9393.8061    639.22977    304.61222 
    2250   0.97107373    -9394.102    710.53427    307.41659 
    2260   0.97111185   -9394.4887     935.4845    302.79094 
    2270   0.97114725   -9394.9174     1073.798    300.16113 
    2280   0.97117953   -9395.7666    954.14039    306.47693 
    2290   0.97120896   -9396.6531    928.40452     304.0809 
    2300   0.97123564   -9397.7741    1001.2966    300.27018 
    2310   0.97125938   -9399.1317    1074.7175    301.30198 
    2320   0.97127996   -9400.6199    1071.0858    303.12937 
    2330   0.97129741   -9402.4593    1008.1201    303.87325 
    2340   0.97131185   -9404.4952    1069.4838    302.50878 
    2350   0.97132317   -9406.6554     1105.698    299.52445 
    2360   0.97133127   -9409.2406    959.63572     305.1362 
    2370   0.97133648   -9412.1676    936.43144    307.79092 
    2380   0.97133891   -9415.5725    1005.2108    305.14878 
    2390   0.97133839   -9419.2979    1011.4735    300.01427 
    2400   0.97133496   -9423.5226    819.69116    304.32925 
    2410   0.97132906   -9428.1065    766.54263    303.66816 
    2420    0.9713209   -9433.0719    722.50351    302.62365 
    2430   0.97131064   -9438.5305    560.12204    307.01216 
    2440   0.97129874    -9444.505    415.51083    309.38297 
    2450   0.97128558   -9451.0351    375.74235    309.57246 
    2460   0.97127128   -9457.8531    462.02778    306.95071 
    2470   0.97125563   -9464.9791    540.13644    304.31199 
    2480    0.9712384      -9471.7    628.67084    297.91698 
    2490   0.97121934   -9478.1941    641.07538    296.53454 
    2500   0.97119841   -9484.1963    535.98202    303.87582 
    2510   0.97117586    -9489.965    527.57655    302.88698 
    2520   0.97115175   -9495.1196    631.38176    294.01128 
    2530   0.97112582   -9499.6645    691.15772    291.66227 
    2540   0.97109785   -9503.5953    701.68721    295.89867 
    2550    0.9710678   -9506.7099    739.09745    290.36664 
    2560   0.97103566   -9509.4251    489.17463    296.05159 
    2570   0.97100203   -9511.8489    352.06355    300.31659 
    2580   0.97096729    -9513.839    521.12651    295.09746 
    2590   0.97093104   -9515.7538    656.30604    290.84692 
    2600    0.9708929   -9517.1063    652.37496    288.37311 
    2610    0.9708529    -9518.285    441.20624     294.4389 
    2620   0.97081152   -9519.0179    427.37157    290.74099 
    2630    0.9707689   -9519.7513    412.44783    296.15773 
    2640     0.970725   -9520.1593    578.74716     296.1014 
    2650   0.97067942   -9520.5609    730.41115    294.90922 
    2660   0.97063168   -9520.7755    845.56649    291.18754 
    2670   0.97058151   -9520.9146    774.80318    293.97885 
    2680   0.97052905   -9521.0032    713.71261     296.4696 
    2690   0.97047449   -9520.7125    671.55087    289.92971 
    2700   0.97041809   -9520.6451    215.03723    298.17804 
    2710   0.97036099   -9520.3416   -116.65808    303.82928 
    2720   0.97030413   -9520.1267   -19.395203    295.82043 
    2730   0.97024732   -9519.9466    206.58411    286.65549 
    2740   0.97019001   -9519.5601    142.24963    289.74928 
    2750   0.97013228   -9518.8813     9.515244    294.07993 
    2760   0.97007448   -9517.8347    46.110392    291.71402 
    2770   0.97001653   -9516.7714    110.84545    291.43441 
    2780   0.96995828   -9515.6094    112.30046    293.81752 
    2790   0.96989968   -9514.0855    175.24651    290.56702 
    2800   0.96984059   -9512.5661    210.08871    291.84688 
    2810   0.96978086    -9510.708    303.76688    289.00153 
    2820    0.9697203   -9508.8576    200.49481    294.93525 
    2830   0.96965911   -9506.6404    177.10254    295.48791 
    2840   0.96959743   -9504.4443    77.966193    297.30103 
    2850    0.9695355   -9502.2297    83.337468    296.09307 
    2860   0.96947329   -9499.9536    191.31232    295.41972 
    2870   0.96941051   -9497.5148    347.52238    293.12773 
    2880   0.96934672   -9494.8542    494.78233    288.35439 
    2890   0.96928152   -9492.1269    440.41614    295.89756 
    2900   0.96921496    -9489.242    515.40261    296.71425 
    2910    0.9691469   -9486.2503    576.56474     290.4788 
    2920   0.96907721   -9483.1655     441.1524    297.13635 
    2930   0.96900616   -9479.9773    527.42498    296.80559 
    2940   0.96893356   -9476.6473    663.42479     295.5897 
    2950   0.96885901   -9473.4591    748.03496    296.45671 
    2960   0.96878226    -9470.083     796.3581    294.37565 
    2970   0.96870323   -9466.8451     641.5887     295.8592 
    2980   0.96862236   -9463.5866    374.64011    301.09415 
    2990   0.96854034    -9460.478    280.54471    305.80633 
    3000   0.96845744   -9457.4474    443.83088    303.82432 
    3010   0.96837323   -9455.0054    651.13544    302.42159 
    3020    0.9682871   -9452.4265    864.44078    298.87173 
    3030   0.96819848   -9450.0223    948.46135    296.99342 
    3040   0.96810709   -9447.7537    912.57487    297.50944 
    3050   0.96801307   -9445.4788    775.89618    299.48021 
    3060   0.96791679   -9443.3497    580.04325    304.83998 
    3070   0.96781875   -9441.1757    547.71137     303.9648 
    3080   0.96771909   -9439.3979    642.59951    301.80349 
    3090   0.96761754   -9437.7325    790.73988    299.43788 
    3100   0.96751373   -9436.2584    765.83818      302.589 
    3110   0.96740766   -9434.8112    776.28637    302.57112 
    3120   0.96729935   -9433.4442    740.90512    299.56253 
    3130   0.96718892   -9432.4741    544.53065    304.11369 
    3140   0.96707688   -9431.4981    391.09306    303.58591 
    3150   0.96696374   -9430.7012    161.31512    305.18839 
    3160   0.96685013    -9430.125    31.213225    308.95973 
    3170   0.96673635   -9429.7318      276.982    300.10601 
    3180   0.96662185   -9429.5296    356.63214    295.60181 
    3190    0.9665064   -9429.5518     160.0197    301.40737 
    3200   0.96639046   -9429.3579    81.006613    300.50049 
    3210   0.96627435   -9429.3338   -4.1436118    301.07949 
    3220   0.96615827   -9429.4415   -60.191134    299.22099 
    3230    0.9660424   -9429.4189   -17.259521    294.32164 
    3240   0.96592662   -9429.3673    26.817383    296.71612 
    3250   0.96581081   -9429.3102   -9.9542153    302.84083 
    3260   0.96569502   -9429.3288    95.636756    302.90934 
    3270   0.96557893   -9429.4042    406.93553      295.794 
    3280   0.96546172   -9429.5777     603.9903    293.72368 
    3290   0.96534281   -9429.5758    624.62316    293.01447 
    3300   0.96522217   -9429.6386    439.69316    300.32143 
    3310   0.96510018   -9429.5393    528.87507    296.31917 
    3320   0.96497673   -9429.3715    505.29875     297.9555 
    3330    0.9648519   -9429.4651    232.82104    308.42941 
    3340   0.96472633   -9429.5237    322.72943    300.18487 
    3350   0.96459989   -9429.8035    427.01074    296.67597 
    3360    0.9644723   -9429.9534    374.65248    296.37496 
    3370   0.96434371    -9430.054    127.44572    301.26626 
    3380   0.96421475   -9430.4346    30.591079     302.5451 
    3390   0.96408574   -9431.0067    120.66869    296.95743 
    3400   0.96395647   -9431.4503    171.43941    294.37396 
    3410   0.96382678   -9432.0187    131.65093     299.2836 
    3420   0.96369672   -9432.4312     197.4365    297.45052 
    3430   0.96356623   -9432.9965    41.062141    297.24715 
    3440   0.96343571    -9433.627   -178.86765    302.54269 
    3450   0.96330572   -9434.3481   -146.91298    302.38517 
    3460   0.96317622    -9435.181    44.618652    297.39799 
    3470   0.96304669   -9436.2894    172.78777    294.07391 
    3480   0.96291679   -9437.5087    119.94197    297.80304 
    3490   0.96278657   -9438.6929    165.54635    296.92059 
    3500     0.962656    -9440.042    59.149866    297.09778 
    3510   0.96252535   -9441.4239   -50.539625    291.09923 
    3520   0.96239497   -9442.7609   -162.22859    289.48913 
    3530   0.96226513   -9443.9865    -214.8011    290.27784 
    3540   0.96213602   -9445.0079   -242.62603    289.36922 
    3550   0.96200772   -9445.9055   -265.62508    292.55351 
    3560   0.96188024   -9446.4903   -114.85619    286.27975 
    3570   0.96175332   -9447.1731   -263.05215    291.75019 
    3580   0.96162723   -9447.5382   -371.29614    296.93209 
    3590   0.96150227   -9447.9377   -323.72608    300.29715 
    3600   0.96137835   -9448.4123   -222.38569     298.3426 
    3610   0.96125525   -9448.9345   -326.43691    298.62037 
    3620   0.96113318   -9449.4182   -302.05466    294.06624 
    3630   0.96101213   -9449.7449   -261.35356    290.50397 
    3640   0.96089199   -9450.1167   -402.48776    297.12422 
    3650   0.96077306   -9450.3591   -294.75793    294.33519 
    3660   0.96065511   -9450.4694    -192.0262    289.51563 
    3670   0.96053793   -9450.4555   -425.32399     297.9084 
    3680   0.96042206   -9450.3071   -528.75554    299.26465 
    3690   0.96030782   -9449.9381   -426.96761    290.21601 
    3700   0.96019501   -9449.7333   -534.34531    291.96474 
    3710   0.96008386   -9449.1972   -625.84658    292.76625 
    3720   0.95997465   -9448.4871    -697.3003    294.18891 
    3730   0.95986759    -9447.738   -746.03545    294.87456 
    3740   0.95976287    -9446.898   -869.80274    297.67772 
    3750   0.95966076   -9445.7915   -822.80715    293.55205 
    3760   0.95956121    -9444.413   -809.70372    293.60394 
    3770   0.95946413   -9443.1128   -821.69799    298.46747 
    3780   0.95936951   -9441.6232    -639.2305    295.48424 
    3790   0.95927689   -9440.0685   -528.18522    295.39113 
    3800   0.95918594   -9438.4063   -533.93219     293.7397 
    3810   0.95909671   -9436.5755   -739.91227    298.50153 
    3820   0.95900972   -9434.7314   -839.53458     303.6049 
    3830   0.95892524   -9432.8873   -727.00034    303.28945 
    3840   0.95884296    -9431.199   -520.71364    300.17923 
    3850    0.9587623   -9429.5417    -268.0839    292.10552 
    3860   0.95868259   -9427.8199    -290.1936    292.70377 
    3870   0.95860387   -9425.9486   -589.18786    300.18616 
    3880   0.95852698   -9423.7734   -954.79191    304.21543 
    3890   0.95845296   -9421.8698   -1253.3832    308.94976 
    3900   0.95838264     -9420.24    -1258.194    304.43093 
    3910   0.95831608   -9418.8186   -1173.1346    303.32145 
    3920   0.95825307   -9417.5989   -1134.5448    307.35992 
    3930    0.9581934   -9416.6157   -948.93894    307.93529 
    3940   0.95813654   -9415.8157   -619.22459    301.57396 
    3950   0.95808162   -9415.1292   -430.98712    295.98168 
    3960   0.95802807   -9414.4762   -412.08701    295.14591 
    3970   0.95797578   -9413.5752   -399.99881    292.42223 
    3980   0.95792477   -9412.7984   -530.00498    297.87442 
    3990   0.95787529   -9411.7047   -415.88145     295.0752 
    4000   0.95782711   -9410.4829   -345.80873    297.29936 
    4010   0.95777998   -9409.2776   -300.20497    299.48337 
    4020   0.95773379   -9408.0065   -245.12502    293.29648 
    4030   0.95768843   -9406.8762   -435.20477    300.04842 
    4040   0.95764437   -9405.4737   -504.42383    299.11315 
    4050   0.95760187   -9404.0756    -577.8296    297.68839 
    4060    0.9575611   -9402.6769   -580.63823     297.5433 
    4070   0.95752203   -9401.0019   -428.23688    293.65505 
    4080   0.95748431   -9399.5618    -430.8375     298.8096 
    4090   0.95744786   -9397.7621   -408.95222    297.06555 
    4100    0.9574127   -9395.9821   -518.54933    301.81649 
    4110   0.95737903   -9394.0813   -414.50746    296.80644 
    4120   0.95734666    -9392.339   -365.18452    296.44214 
    4130    0.9573154   -9390.3374   -392.22326    297.44716 
    4140   0.95728535   -9388.2782    -488.7596     298.3317 
    4150   0.95725675   -9386.2833   -497.35285    303.43458 
    4160   0.95722955   -9384.2145    -209.9712    298.91832 
    4170   0.95720304   -9382.2594   -56.606199     298.7025 
    4180   0.95717673   -9380.1958    70.661652     294.0269 
    4190   0.95715026   -9377.9304    149.81109    292.28675 
    4200   0.95712341   -9375.4664    36.198129    295.48219 
    4210   0.95709655   -9373.0459   -339.88045    303.75915 
    4220   0.95707063   -9370.3262   -474.77596    299.33421 
    4230   0.95704619    -9367.853   -696.11189    303.86585 
    4240   0.95702375   -9365.4336   -635.26253    302.62482 
    4250   0.95700315   -9362.9809   -385.38681    298.49747 
    4260   0.95698375   -9360.5749   -261.67414    297.39092 
    4270    0.9569652   -9358.1215   -401.64477    302.74159 
    4280   0.95694787   -9355.7111   -578.48691     308.4726 
    4290   0.95693219   -9353.2873   -490.05345    302.79021 
    4300   0.95691799   -9351.1499    -435.6763    302.98795 
    4310    0.9569051   -9349.0011   -481.74007    303.71531 
    4320   0.95689365   -9347.0497   -565.44195    303.86726 
    4330   0.95688384   -9345.2529   -529.38205    302.01561 
    4340   0.95687559   -9343.5238   -467.91917    301.24309 
    4350   0.95686878   -9341.8622   -546.88093    303.82501 
    4360   0.95686358   -9340.1794   -653.91508    302.87477 
    4370   0.95686035   -9338.9476   -843.37286    308.84066 
    4380   0.95685953   -9337.4726    -757.1043    303.51851 
    4390   0.95686097   -9336.5117   -718.03972    305.09724 
    4400   0.95686449   -9335.5303   -636.71292    303.09799 
    4410   0.95686988   -9334.6616   -549.47584    303.51647 
    4420   0.95687683   -9333.9814   -349.59001    304.67046 
    4430    0.9568848   -9333.3605   -170.40099    299.09061 
    4440   0.95689335   -9332.8484   -191.09233    299.92649 
    4450   0.95690241   -9332.2811   -71.676587     298.1006 
    4460   0.95691167   -9331.7876    67.186567    300.67029 
    4470   0.95692071    -9331.343    201.44235    301.49654 
    4480   0.95692916   -9331.1257    270.03219     299.5112 
    4490   0.95693682   -9330.7783    319.02037    297.01946 
    4500   0.95694356   -9330.3972    256.17174    296.98106 
    4510   0.95694961   -9329.8474    16.121347    297.57719 
    4520   0.95695563   -9329.3948   -361.30531    306.79768 
    4530   0.95696264   -9329.1612   -516.92144    309.63577 
    4540   0.95697111   -9329.1166   -474.97567    304.86079 
    4550   0.95698102   -9329.5429    -477.3464    301.31532 
    4560   0.95699234   -9330.0104   -553.55833    301.45152 
    4570   0.95700528   -9330.6666   -626.72756    304.73554 
    4580   0.95702002   -9331.5759   -641.87261    310.00548 
    4590   0.95703661   -9332.8207   -543.65744     307.5309 
    4600   0.95705484   -9334.7779    -642.7996    315.26433 
    4610   0.95707485   -9337.1139   -428.53764    309.19737 
    4620   0.95709609   -9339.9064   -42.472567     296.4223 
    4630   0.95711755   -9343.2103   -29.885052    299.84483 
    4640   0.95713907   -9346.4067   -59.767275     297.7326 
    4650   0.95716076   -9350.1831   -118.89457    301.49417 
    4660    0.9571827   -9353.7581    22.461663    292.98733 
    4670   0.95720469   -9357.9265   -222.56542    304.42653 
    4680   0.95722721   -9362.2605   -231.38953    303.22909 
    4690   0.95725044   -9366.9201   -272.38812    301.96208 
    4700   0.95727447   -9371.8401   -395.01342    302.80105 
    4710   0.95729962    -9376.832   -424.62505    300.38264 
    4720   0.95732598   -9382.0443   -348.91754    300.23597 
    4730   0.95735329   -9387.3861   -111.15674    298.15163 
    4740    0.9573809   -9392.2692    95.538802     292.0579 
    4750   0.95740831   -9397.2985   -69.612463    300.15526 
    4760   0.95743585   -9402.1111   -138.70392    302.05453 
    4770   0.95746376   -9406.7386   -134.16795    300.35325 
    4780   0.95749204   -9411.2546   -57.709267    298.04825 
    4790   0.95752047   -9415.4173    42.074534    293.87014 
    4800   0.95754877   -9419.4453    50.231696    296.11768 
    4810   0.95757687   -9423.2119    82.265495    298.97739 
    4820   0.95760467   -9426.6586    210.96506    295.41311 
    4830   0.95763187   -9429.6843    283.25026    289.49499 
    4840   0.95765827   -9432.4124     167.7051    290.59839 
    4850   0.95768417   -9434.7811   -35.789067    294.13503 
    4860   0.95771013   -9436.9997   -134.39403    293.23242 
    4870   0.95773645   -9438.8341   -131.01165    287.21402 
    4880   0.95776321   -9440.4122   -369.72005    291.90292 
    4890     0.957791   -9441.6639   -582.75273    295.18828 
    4900    0.9578205   -9442.8036   -793.26347    298.45153 
    4910   0.95785228   -9443.9139   -909.27495     299.7095 
    4920   0.95788671   -9445.0719   -1013.0751    300.32535 
    4930   0.95792408   -9446.2476   -1032.2313    299.19447 
    4940   0.95796448   -9447.4185   -1077.9455    301.37653 
    4950   0.95800798   -9448.5724   -984.43571    300.12753 
    4960   0.95805431   -9449.5499   -744.65168    292.11502 
    4970   0.95810286   -9450.7812   -691.04576    293.91483 
    4980   0.95815337   -9451.5267   -569.78354    291.52658 
    4990   0.95820553   -9452.3596   -458.19291    290.87066 
    5000   0.95825898   -9452.7034   -280.73401    283.34893 
    5010   0.95831331   -9452.8385   -449.35127    288.75874 
    5020   0.95836891   -9452.7047   -683.90482    297.14887 
    5030   0.95842641   -9452.3489   -687.87749    296.71812 
    5040   0.95848589   -9452.0489   -678.43505    299.28307 
    5050    0.9585473   -9451.8193   -588.99253    296.87635 
    5060   0.95861042   -9451.5957    -547.9826    294.55724 
    5070   0.95867511   -9451.0875   -506.43272    292.69074 
    5080   0.95874125   -9450.6432   -499.91788    290.41083 
    5090   0.95880883   -9449.7805   -528.11914    290.84195 
    5100   0.95887791   -9448.7604   -579.56401    294.98464 
    5110   0.95894859   -9447.6012   -487.22918    295.15229 
    5120   0.95902063   -9446.5138   -333.92649    295.92535 
    5130   0.95909356    -9445.145   -77.053037    292.59491 
    5140   0.95916668   -9443.4894    128.32733    286.92547 
    5150   0.95923945    -9441.882    53.770886    292.57767 
    5160   0.95931198   -9439.8775   0.48447456    293.42323 
    5170   0.95938444   -9437.6721   -5.6922259    291.90345 
    5180   0.95945685   -9435.3116    53.367709    290.54175 
    5190   0.95952907   -9432.7241    20.464807    293.89596 
    5200   0.95960116    -9429.742   -28.138569    298.06767 
    5210   0.95967325   -9426.3705    16.050924    291.20423 
    5220   0.95974531   -9423.3193   -136.79826    296.78196 
    5230   0.95981766   -9420.0229   -149.49002    298.12214 
    5240   0.95989034   -9416.6559    35.394018    296.32929 
    5250   0.95996284   -9413.1763    262.75269    294.45893 
    5260   0.96003456   -9409.5952    310.19265    296.86413 
    5270    0.9601053   -9405.9875     311.4801    299.58333 
    5280   0.96017504   -9402.2038    409.40168    293.67741 
    5290   0.96024359   -9398.6932    252.00816    300.94293 
    5300   0.96031127   -9395.0898    276.19296    299.03908 
    5310   0.96037811   -9391.5829    198.47078    299.70479 
    5320   0.96044435   -9388.1249   -23.411627    305.70096 
    5330   0.96051053   -9384.7927     37.57297    302.34378 
    5340   0.96057653   -9381.8248    182.98366    299.73611 
    5350   0.96064198   -9378.8971    161.59314    301.02347 
    5360   0.96070688    -9376.233    185.78021    298.77839 
    5370   0.96077119   -9373.6716     154.6019    300.76958 
    5380   0.96083499   -9371.2729     107.1919    300.92962 
    5390   0.96089839   -9368.8969    167.84044     296.2984 
    5400   0.96096128   -9366.6814    92.924293    298.93917 
    5410   0.96102388   -9364.6344    -177.2159    309.52937 
    5420   0.96108682   -9362.8052   -15.247135    302.10681 
    5430   0.96114977   -9361.3215    170.25008    297.41579 
    5440   0.96121222   -9359.9004    144.71888    299.32341 
    5450   0.96127419   -9358.7312    52.886828    305.17468 
    5460   0.96133593   -9357.6125    41.428425    305.38133 
    5470   0.96139745   -9356.6802    175.40784    304.51496 
    5480   0.96145832    -9356.047     585.9942    298.14595 
    5490   0.96151742    -9355.319    942.02557    291.13608 
    5500   0.96157379   -9354.8143    935.91325     297.2478 
    5510   0.96162733   -9354.2057    925.96236    302.08701 
    5520   0.96167807   -9353.7662    965.97931    304.69864 
    5530   0.96172589   -9353.2873    1059.6908    299.38662 
    5540   0.96177062   -9353.0485    978.73603    299.08256 
    5550   0.96181243   -9352.9011    835.27626    301.11842 
    5560    0.9618518   -9352.7471    492.06756    306.19516 
    5570   0.96188968   -9353.0622     159.1661     311.9636 
    5580   0.96192694   -9353.4955    231.35204    306.15775 
    5590   0.96196349   -9354.1677    366.04242    300.80901 
    5600   0.96199897   -9355.0168    363.54764    300.72741 
    5610   0.96203332   -9355.6913    419.46435    300.30691 
    5620   0.96206642   -9356.4433      461.288     299.0376 
    5630    0.9620981   -9357.0528    622.07169    294.29858 
    5640   0.96212792   -9357.7668    731.82792    298.66924 
    5650   0.96215553   -9358.4708    802.13939    304.16996 
    5660   0.96218077   -9359.1633    750.68607    302.97625 
    5670   0.96220385   -9360.0958     504.1747    306.82395 
    5680   0.96222539   -9361.2194    365.52898    307.67821 
    5690    0.9622458   -9362.5258     408.3145    307.47894 
    5700   0.96226491   -9363.8326    731.17264    301.30345 
    5710   0.96228188   -9365.1586     936.8471    295.68468 
    5720   0.96229617   -9366.4835    820.12093    302.22754 
    5730     0.962308   -9367.6955    708.63949    306.39606 
    5740   0.96231772   -9369.1659    645.87123    303.71096 
    5750   0.96232556   -9370.6399    532.36194    302.06075 
    5760   0.96233179   -9372.1543    539.13749    302.44094 
    5770   0.96233644   -9373.7991    497.01187    306.87367 
    5780   0.96233959   -9375.5454    490.05215     305.7078 
    5790   0.96234132   -9377.3157    477.71226    302.26436 
    5800   0.96234166   -9379.0786    478.07089    302.87807 
    5810   0.96234053   -9381.1227    672.80591     303.6468 
    5820   0.96233737   -9382.9915    973.51561    297.56267 
    5830   0.96233142   -9384.6604    1029.4892    295.94435 
    5840   0.96232248    -9385.919    915.12444    295.40013 
    5850   0.96231094   -9387.3484    532.42006     305.0852 
    5860   0.96229775   -9388.8489    411.77248    306.34448 
    5870   0.96228329   -9390.3628    651.32008    298.70507 
    5880   0.96226694   -9391.9694    877.47546    296.08025 
    5890   0.96224807   -9393.2793    921.13967    295.19005 
    5900    0.9622265    -9394.514    940.91109    296.83349 
    5910   0.96220217    -9395.851     1020.977    299.20674 
    5920   0.96217481   -9396.9692    1228.8589    293.76943 
    5930   0.96214393   -9398.0012    1186.4068     296.7652 
    5940   0.96210963   -9398.9293    955.38116    299.69292 
    5950   0.96207256   -9399.8921    733.72096    300.47804 
    5960   0.96203334   -9400.8233     598.8988    301.40411 
    5970   0.96199238   -9401.9944    544.79048    304.53548 
    5980    0.9619498   -9403.0524    687.44583    299.17373 
    5990   0.96190532   -9404.3347    621.12194    298.84249 
    6000   0.96185906   -9405.5681    524.88601    302.42909 
    6010   0.96181122   -9406.6462    683.35899    295.03685 
    6020   0.96176148   -9407.9544    724.71422    296.89871 
    6030   0.96170961   -9409.0683    849.73743    297.69539 
    6040   0.96165532   -9410.1694    862.38225    299.74849 
    6050   0.96159855   -9411.3181    817.25213    301.48354 
    6060   0.96153944   -9412.5968    815.81421    300.81545 
    6070   0.96147803   -9413.8055    691.11466    302.52815 
    6080   0.96141465   -9415.2452    532.03304    304.36137 
    6090   0.96134974   -9416.7442    486.20357    301.18875 
    6100   0.96128348   -9418.3492    461.57075    298.61705 
    6110   0.96121592   -9420.0111    509.73122    297.08612 
    6120   0.96114692   -9421.6227    575.76226    296.89718 
    6130   0.96107631   -9423.0153    601.53261    294.17162 
    6140   0.96100408    -9424.608     415.5457    300.58648 
    6150   0.96093063   -9425.9335    425.86459    296.77372 
    6160   0.96085604    -9427.364    381.81262    296.35801 
    6170   0.96078045   -9428.8947    154.94961    303.40783 
    6180   0.96070441   -9430.3312    183.12225    298.87256 
    6190   0.96062792   -9431.8534    307.66357    295.11504 
    6200   0.96055064    -9433.346    303.46133    297.47192 
    6210   0.96047256   -9434.9624    270.51916    300.81501 
    6220   0.96039378   -9436.3358    215.49386    298.74367 
    6230   0.96031448   -9438.0178    91.419514    300.79907 
    6240   0.96023499   -9439.8434    39.152341    301.13629 
    6250   0.96015545   -9441.6429    51.329594    298.06232 
    6260   0.96007588   -9443.4178    57.182216    294.12782 
    6270   0.95999625    -9445.344    9.3086375    296.36292 
    6280   0.95991662   -9446.9476    105.34639     293.9262 
    6290   0.95983681   -9448.5045    138.14668     296.1228 
    6300   0.95975667   -9449.9396    191.83933    294.01206 
    6310   0.95967609   -9451.4803    172.05012    296.81394 
    6320   0.95959511   -9453.0363    129.62288    297.85058 
    6330   0.95951386   -9454.4549     35.67536    298.48773 
    6340    0.9594326   -9456.1547   -40.600968     302.0552 
    6350   0.95935151   -9457.8081    24.511879    296.32849 
    6360    0.9592705   -9459.6907   -14.776157    299.53259 
    6370   0.95918958   -9461.5576    62.826148    300.24005 
    6380    0.9591086   -9463.6721    43.791642    301.51563 
    6390   0.95902759   -9465.8393    76.911731    296.21934 
    6400   0.95894646   -9468.0517    140.63639    289.53963 
    6410   0.95886508    -9470.389   -1.1280636    294.78571 
    6420   0.95878376   -9472.7111   -45.633152    294.91714 
    6430   0.95870268     -9474.95   -22.701781    289.02359 
    6440   0.95862184    -9477.288   -210.50707    295.54504 
    6450   0.95854166   -9479.5816   -219.72983    293.23103 
    6460   0.95846226   -9481.9937   -244.12409    290.48891 
    6470   0.95838369    -9484.323   -275.60306    289.67317 
    6480   0.95830602   -9486.7643   -254.61523    289.08267 
    6490   0.95822921    -9489.057   -243.45296    291.17065 
    6500    0.9581532   -9491.3916   -171.06775    287.67376 
    6510   0.95807783   -9493.6494    -215.1296    287.89296 
    6520   0.95800322   -9495.7495   -319.12578    288.01743 
    6530   0.95792968    -9497.987   -495.96524    293.71975 
    6540   0.95785762   -9500.1919   -446.92881    290.40355 
    6550   0.95778701   -9502.4415   -453.28771    290.21064 
    6560   0.95771786   -9504.7776   -627.00041    292.64274 
    6570   0.95765063   -9507.0927   -753.88958    292.31075 
    6580   0.95758571   -9509.6787    -825.6701    293.88785 
    6590   0.95752328   -9512.1822   -743.65124     290.6281 
    6600   0.95746314   -9514.8119    -748.2367    292.39629 
    6610   0.95740528   -9517.4904   -743.97134       291.03 
    6620   0.95734966   -9520.1851   -636.61111     289.2204 
    6630   0.95729595   -9522.4361   -340.26049    278.44429 
    6640   0.95724346   -9524.6922   -450.97765    283.65688 
    6650   0.95719236   -9526.5135   -591.98586    288.22397 
    6660   0.95714302   -9528.3141   -582.13339    287.99234 
    6670   0.95709548   -9529.9705   -674.50929    291.58758 
    6680   0.95705001   -9531.3494   -848.86272    290.93746 
    6690    0.9570071   -9532.6742   -929.50284    290.75347 
    6700   0.95696692   -9533.7755   -741.61659    282.45211 
    6710   0.95692902    -9534.453   -626.22278    276.91103 
    6720   0.95689309   -9534.7524    -743.4592    281.15258 
    6730   0.95685939   -9534.5039    -862.8586    281.67773 
    6740   0.95682827   -9533.8495    -959.6905     285.8792 
    6750   0.95679998   -9532.6211   -955.18148    287.93384 
    6760   0.95677452   -9531.0947   -855.59979    284.74183 
    6770   0.95675159   -9529.1368   -654.52372    276.69264 
    6780   0.95673068   -9526.6386   -608.13254    276.73011 
    6790    0.9567116   -9523.4153   -695.29044    283.33825 
    6800   0.95669457   -9519.5192    -774.2681    285.89473 
    6810   0.95667986   -9515.0894   -831.87724    285.35753 
    6820   0.95666761   -9510.3459   -830.99813    281.95963 
    6830   0.95665786   -9505.3591   -908.49326    287.32967 
    6840   0.95665074   -9499.6233   -858.59145    284.20472 
    6850   0.95664621    -9493.886   -972.09096    288.93734 
    6860   0.95664451   -9487.9673   -1030.9787     293.0762 
    6870   0.95664581   -9481.9583   -910.12717    290.97843 
    6880   0.95664976    -9476.213   -666.25618    286.28275 
    6890   0.95665569   -9470.6524   -489.95178    287.19099 
    6900   0.95666306   -9465.0575   -381.64042     289.8059 
    6910   0.95667154   -9459.6576   -258.60947    286.57758 
    6920   0.95668083    -9454.618   -302.21392    291.25942 
    6930   0.95669094   -9449.7802   -259.49305    293.87936 
    6940   0.95670177   -9445.1394   -67.500595    289.37518 
    6950   0.95671283   -9440.9264   -19.467301    291.62581 
    6960   0.95672395   -9436.7297   -28.192877    291.45462 
    6970   0.95673515   -9432.7697   -53.364378    289.49697 
    6980    0.9567465   -9429.0026   -97.495445     293.0216 
    6990   0.95675809    -9425.352    -64.07519    292.78298 
    7000   0.95676983   -9421.8033    39.365639    286.84022 
    7010    0.9567815    -9418.328    47.506148     288.1486 
    7020   0.95679304   -9414.7512   -84.584067    292.20939 
    7030   0.95680478   -9411.1214   -133.24838    293.88489 
    7040   0.95681686   -9407.5737    7.0940685    292.98433 
    7050   0.95682887   -9404.1723    204.33904    288.66359 
    7060   0.95684028   -9400.6652    375.72401    286.47127 
    7070   0.95685059    -9397.191    407.71641    291.14896 
    7080   0.95685967    -9393.449    490.38496    290.96651 
    7090   0.95686729   -9389.8951    588.17605    294.05387 
    7100   0.95687316   -9386.1044    662.90611     296.0987 
    7110   0.95687712   -9382.3763    528.32814    297.99324 
    7120   0.95687958   -9378.9967    210.01946    303.74173 
    7130   0.95688135   -9375.7103    109.60497    301.28987 
    7140    0.9568828   -9372.7999     39.20339    303.78969 
    7150   0.95688411   -9370.1596    49.185111    304.29701 
    7160   0.95688526   -9367.5849    140.72137    299.40865 
    7170   0.95688604    -9365.159    138.55072    298.22013 
    7180   0.95688638   -9362.9995    160.91801    296.44769 
    7190   0.95688626   -9360.8693    170.11088    296.16508 
    7200   0.95688566   -9358.5815    64.607428    298.30091 
    7210   0.95688488   -9356.3521   -63.482838    301.56378 
    7220   0.95688427   -9354.3066   -113.11836    305.35599 
    7230   0.95688393   -9352.6142    22.998303    304.49392 
    7240   0.95688353   -9350.9546    185.71376    299.72124 
    7250   0.95688262   -9349.3856    206.47366    299.54942 
    7260   0.95688109   -9347.8879    231.10523    303.01457 
    7270   0.95687884   -9346.4563    357.81815    302.02075 
    7280   0.95687559   -9345.3501    366.27222    306.10723 
    7290   0.95687125   -9344.2845    371.76581    307.48864 
    7300   0.95686585    -9343.756    317.78779     310.7278 
    7310   0.95685949   -9343.3074     340.8982    307.40653 
    7320   0.95685216   -9343.4013    349.88446    309.58452 
    7330   0.95684375   -9343.5889    544.47764    300.11598 
    7340   0.95683383   -9343.9811     606.6835    295.44234 
    7350   0.95682214   -9344.3742    635.81428    297.44403 
    7360   0.95680859   -9344.6782    651.41861    296.33918 
    7370   0.95679317   -9344.9011     526.1655    298.55023 
    7380   0.95677623   -9345.0585    380.47693    300.53425 
    7390   0.95675814   -9345.2743     444.1662    292.83986 
    7400   0.95673885   -9345.5899    290.71872    296.95722 
    7410   0.95671871   -9345.8314    160.51586    298.20095 
    7420   0.95669808   -9345.8743     210.3694    289.87346 
    7430   0.95667695   -9346.0092    5.4930814    296.09054 
    7440   0.95665579   -9345.7775   -125.25748     296.5285 
    7450   0.95663508    -9345.673    -378.8851    300.69428 
    7460    0.9566155   -9345.6702   -557.75875    304.31327 
    7470   0.95659753   -9345.7524    -551.9484    304.47101 
    7480   0.95658119   -9346.2057   -433.98792    302.67801 
    7490   0.95656611   -9346.4485   -211.59206    293.88014 
    7500   0.95655181   -9346.9728   -439.54015    303.43916 
    7510   0.95653878   -9347.5383   -576.91067     305.2475 
    7520   0.95652744   -9348.2435   -600.22906    305.61738 
    7530   0.95651786   -9349.4671   -555.34856     307.3872 
    7540   0.95650989   -9350.5899   -342.04292    297.66185 
    7550   0.95650307   -9352.1177   -447.49485    302.28673 
    7560   0.95649751   -9353.6578   -451.13271    301.28462 
    7570   0.95649332    -9355.531   -523.87663    306.27354 
    7580   0.95649062   -9357.4136   -460.45065    303.16987 
    7590   0.95648933   -9359.8712   -502.64457    305.07445 
    7600   0.95648947   -9362.3769   -434.61407    303.14972 
    7610   0.95649093   -9365.1921   -414.39177    302.63828 
    7620   0.95649357   -9368.1801   -303.84647     299.0205 
    7630   0.95649708   -9371.2319   -95.730477    292.57207 
    7640   0.95650093   -9374.1959   -86.878198    294.00971 
    7650   0.95650505   -9377.1175   -205.22317    298.82101 
    7660   0.95650974   -9379.9942   -294.07278    300.25701 
    7670   0.95651528    -9383.332   -358.36098    301.53661 
    7680   0.95652184   -9386.5096   -302.80782     297.0777 
    7690   0.95652934   -9389.8867   -374.29258    302.09468 
    7700   0.95653788   -9393.4106   -318.48497    300.14794 
    7710   0.95654735   -9397.0081   -244.69771     295.5662 
    7720   0.95655755   -9400.4524   -274.75507    298.30293 
    7730   0.95656851   -9403.8393   -240.97442    296.60194 
    7740   0.95658017   -9407.2152   -251.48713    296.70926 
    7750   0.95659257   -9410.7284    -320.5789    300.35904 
    7760   0.95660588   -9413.9626   -291.66595    294.72629 
    7770    0.9566201   -9417.2773   -458.03761    296.65979 
    7780   0.95663565   -9420.6101   -680.44619    299.46593 
    7790   0.95665314   -9423.8851   -726.50179    297.08475 
    7800   0.95667274   -9426.8648   -726.97857    297.26149 
    7810   0.95669443   -9429.9551   -661.94973     297.5829 
    7820   0.95671801   -9432.6832   -475.44739     291.2892 
    7830     0.956743   -9435.3733     -455.733    294.53992 
    7840   0.95676925   -9437.7448   -305.66382    288.65315 
    7850    0.9567964   -9439.7373   -212.90386    285.08262 
    7860   0.95682415   -9441.4146   -155.19767    286.15293 
    7870   0.95685232   -9442.4187   -173.13607    283.70919 
    7880   0.95688104   -9443.1622    -471.2525     288.0442 
    7890   0.95691111   -9443.7361   -770.71949    292.68361 
    7900   0.95694337   -9444.0357   -957.39768    297.49077 
    7910   0.95697834   -9444.2738    -946.1935    294.35306 
    7920   0.95701609   -9444.4794   -1051.5671    299.58663 
    7930   0.95705683   -9444.7003   -1037.7537    302.60194 
    7940   0.95710052   -9445.0308   -824.15141    299.19587 
    7950   0.95714657   -9445.3561   -592.87868    295.42161 
    7960   0.95719431   -9445.6803   -412.35093    294.66979 
    7970   0.95724319   -9445.8419    -239.9043    291.11591 
    7980   0.95729275    -9445.859   -175.04027    290.34233 
    7990   0.95734273   -9445.6329   -107.46879    290.34785 
    8000   0.95739297   -9445.1217   -82.120647    291.43224 
    8010   0.95744336   -9444.5011   -30.131927    291.56683 
    8020   0.95749378   -9443.7121   -20.265411    293.85688 
    8030   0.95754415   -9442.7541    67.914221    291.61865 
    8040   0.95759429   -9441.4476    68.071868    289.75293 
    8050   0.95764417   -9440.0962     -23.3902    294.99584 
    8060   0.95769398   -9438.5904    67.526255    296.30256 
    8070    0.9577435   -9436.9812    245.54543    294.90228 
    8080   0.95779224   -9435.2667    347.99699    294.24593 
    8090    0.9578399   -9433.3556    393.72097    291.76383 
    8100   0.95788636    -9431.313    310.77158     293.6166 
    8110   0.95793183   -9429.1169    204.57823    294.59803 
    8120   0.95797667   -9426.7341    19.075898    295.85938 
    8130    0.9580214   -9424.4164   -273.18086    304.21111 
    8140   0.95806679   -9421.9574   -307.17239    305.36492 
    8150   0.95811298   -9419.8748   -179.44163    307.23833 
    8160   0.95815957    -9417.728    155.62687    297.28416 
    8170   0.95820572   -9415.8278    234.65833    294.69368 
    8180   0.95825113   -9413.7338    148.53017    296.51844 
    8190   0.95829604   -9411.4186    95.460051    295.09451 
    8200   0.95834061   -9409.0528   -23.325522    299.49396 
    8210   0.95838514   -9406.3873    13.635245    301.10281 
    8220   0.95842949   -9403.7756    267.60152    295.54124 
    8230   0.95847304   -9401.1437    323.25753    293.92572 
    8240   0.95851562   -9398.1938    191.04999    297.47965 
    8250   0.95855756   -9395.0999    91.019545    301.20348 
    8260   0.95859909   -9391.5694     259.3463    295.49766 
    8270   0.95863985   -9388.0304    284.74745    298.85189 
    8280   0.95867969   -9384.1326    296.46824    297.69979 
    8290   0.95871863   -9380.1986    224.72776    303.77475 
    8300   0.95875678   -9375.7455    320.32272    304.42244 
    8310   0.95879389    -9371.315    599.21422    298.26996 
    8320   0.95882918   -9366.6091    899.93619    291.51743 
    8330   0.95886184   -9361.5816    934.32688    294.46369 
    8340   0.95889172   -9356.1091    837.47922     301.3476 
    8350   0.95891906   -9350.2107    769.25949    301.99187 
    8360   0.95894412   -9344.2921    634.41047    305.16496 
    8370   0.95896722   -9338.3357    661.50423    303.78018 
    8380   0.95898835   -9332.5041    679.17832    305.73844 
    8390   0.95900744   -9326.9917    688.49925    308.44629 
    8400   0.95902443   -9321.4642    823.24953    302.64234 
    8410   0.95903904   -9316.3561    850.39051    300.42943 
    8420   0.95905115    -9311.393     719.1691    305.14196 
    8430   0.95906112   -9306.8893    595.88883    308.45036 
    8440   0.95906929   -9302.9594    588.24175    308.80563 
    8450   0.95907565   -9299.3863    824.34419    306.36386 
    8460    0.9590796   -9296.4289    1003.0937    302.97407 
    8470   0.95908064   -9293.8856    950.82695    305.34921 
    8480   0.95907889   -9291.8703    875.44551    308.76068 
    8490   0.95907454   -9290.0271    900.39916    302.98006 
    8500   0.95906759   -9288.7907    770.69661    307.45469 
    8510   0.95905836   -9287.8324     716.2067    308.86086 
    8520   0.95904703   -9287.2008     659.8323    309.17367 
    8530   0.95903381   -9287.2569     510.7801    311.45548 
    8540   0.95901907   -9287.3891    537.50546    306.37875 
    8550   0.95900278   -9287.8111    587.91251    305.12991 
    8560    0.9589848   -9288.5531    617.38481    306.23365 
    8570     0.958965   -9289.2434    708.70859    303.05194 
    8580   0.95894319   -9290.1275    662.20787    305.57605 
    8590   0.95891946   -9291.0889    545.80058    305.93044 
    8600   0.95889419   -9292.2211    397.70299    309.22912 
    8610   0.95886774   -9293.6103    421.46095    311.92305 
    8620   0.95884004   -9295.2248    614.71969    308.25948 
    8630   0.95881062   -9297.0495    648.70648    307.93495 
    8640   0.95877937   -9299.0178    591.45016    306.50394 
    8650   0.95874645   -9300.8799    501.37416    306.41157 
    8660   0.95871211   -9303.1287    392.49469    313.67859 
    8670   0.95867661   -9305.8198      496.862    315.21317 
    8680   0.95863965   -9308.5436    845.05827    305.30976 
    8690    0.9586003   -9311.4052    1076.8053    301.18094 
    8700   0.95855793   -9314.1819    1053.6907    305.69446 
    8710   0.95851249   -9317.0312    1092.9709    304.85722 
    8720   0.95846394   -9319.9625    1080.4585    305.94374 
    8730   0.95841234   -9323.0991    933.65391    305.47509 
    8740   0.95835807   -9326.0233    847.62709    300.51136 
    8750   0.95830143   -9329.0364    718.22173    302.39107 
    8760   0.95824279   -9331.9658    593.87322    301.51638 
    8770    0.9581825   -9334.9854     489.6915    301.99181 
    8780   0.95812086    -9337.915    495.58296    302.61763 
    8790   0.95805785   -9340.8194    556.64035    301.10616 
    8800   0.95799334   -9343.7607     532.2682    302.92824 
    8810   0.95792737    -9346.611    538.63654    301.30214 
    8820   0.95785995   -9349.6022    551.42045    300.25358 
    8830   0.95779104    -9352.233    539.83029    296.62474 
    8840   0.95772072   -9355.1224    358.26046     301.2408 
    8850   0.95764944    -9357.848    311.94659    300.40539 
    8860   0.95757739   -9360.6277    241.24151    303.02945 
    8870    0.9575047   -9363.4016     367.2167    301.39397 
    8880   0.95743106   -9366.1934    537.47941    298.40755 
    8890   0.95735602   -9368.9366    599.04185    297.95872 
    8900   0.95727937   -9371.4493    589.19694     295.5816 
    8910   0.95720118   -9373.9063    467.15296    300.72864 
    8920   0.95712171   -9376.1848    468.20944    297.53149 
    8930   0.95704107   -9378.6607    322.99194    301.47281 
    8940   0.95695964   -9381.2807    148.43033    308.44538 
    8950   0.95687789   -9384.0653    103.28039    305.87535 
    8960   0.95679603   -9386.9391   -32.649091    304.61322 
    8970   0.95671444   -9389.8766   -146.53744    301.78155 
    8980   0.95663344   -9392.8926   -183.59717    300.61415 
    8990   0.95655317   -9395.9245    -267.5831    301.86565 
    9000   0.95647385   -9399.1166   -362.35799    304.85188 
    9010    0.9563957   -9402.1292   -330.46445    298.72602 
    9020   0.95631878   -9405.1448     -529.198    296.18768 
    9030    0.9562436   -9408.1553   -870.99314    300.32408 
    9040   0.95617107   -9410.9928   -961.52273    300.79002 
    9050   0.95610146   -9413.7807   -775.12664    296.66081 
    9060   0.95603428   -9416.4734   -637.04622    294.66284 
    9070   0.95596917   -9419.0709   -677.28997    297.45789 
    9080   0.95590615   -9421.4771   -615.72629    298.67493 
    9090   0.95584503   -9423.6536   -399.01793    293.97091 
    9100   0.95578525   -9425.8457   -262.07587    292.72204 
    9110   0.95572637   -9427.7724   -186.86178    293.11961 
    9120   0.95566818   -9429.7241   -193.78944    296.58938 
    9130   0.95561067   -9431.3392   -177.29449     294.1856 
    9140   0.95555385   -9432.9427   -276.93645    292.17776 
    9150   0.95549796   -9434.1541     -357.828    292.40899 
    9160   0.95544324   -9435.3357   -387.84655    296.81291 
    9170   0.95538974   -9436.5907   -379.82785    300.87798 
    9180   0.95533744   -9437.5101   -251.65924    293.82266 
    9190   0.95528606   -9438.5289   -324.85025    292.28093 
    9200   0.95523577   -9439.3845   -463.69122    294.67762 
    9210   0.95518694   -9440.1175   -564.45345     299.7186 
    9220   0.95513981   -9440.9093   -446.89382    298.35774 
    9230   0.95509405    -9441.476    -194.2569    288.54226 
    9240   0.95504907   -9441.9129   -227.59443    287.79251 
    9250   0.95500486   -9441.9978   -347.27429    286.57058 
    9260    0.9549618   -9441.8547    -533.5838    291.33133 
    9270   0.95492036   -9441.5963    -612.0263    297.59271 
    9280    0.9548808   -9441.1809   -588.38386    296.32513 
    9290   0.95484308   -9440.8375   -622.89138    295.01235 
    9300   0.95480727   -9440.2239   -617.14571    291.62008 
    9310   0.95477332   -9439.3529   -505.34788    289.23517 
    9320   0.95474092   -9438.4921   -358.38869    289.74841 
    9330   0.95470964   -9437.1952   -147.85887    285.25472 
    9340   0.95467893   -9435.5771   -126.62366    286.56659 
    9350   0.95464869   -9433.6261   -285.05505    295.65428 
    9360   0.95461931   -9431.4839   -316.95257    295.44091 
    9370   0.95459092   -9429.2334   -284.47499     291.1083 
    9380   0.95456345   -9426.7544   -319.21317    293.07213 
    9390   0.95453695   -9424.0181   -280.80747    295.00789 
    9400    0.9545113   -9420.9963   -93.318802    288.77033 
    9410   0.95448601   -9417.7915    18.471083    286.03845 
    9420   0.95446076   -9414.3298    -31.00579    286.16125 
    9430   0.95443573   -9410.3612   -297.94258    292.06094 
    9440    0.9544116   -9406.1231   -485.06034    296.90112 
    9450    0.9543889   -9401.6767   -492.49073    296.83464 
    9460    0.9543677   -9397.1672   -473.17692    296.39234 
    9470   0.95434798   -9392.7917    -607.2297    303.06895 
    9480   0.95433006   -9388.2584   -622.05313    299.98261 
    9490   0.95431403   -9384.1706   -669.45207    301.22258 
    9500   0.95429998   -9380.1546   -606.62755    299.17706 
    9510   0.95428778   -9376.4063   -633.69794       301.31 
    9520   0.95427744   -9372.7664   -634.18128    302.43797 
    9530   0.95426896   -9369.4908    -558.4608    303.44466 
    9540   0.95426211   -9366.3714   -353.30222    298.62602 
    9550   0.95425635   -9363.6815   -234.16883    297.93135 
    9560   0.95425129     -9361.22   -111.58896    296.12939 
    9570   0.95424662    -9358.818    -121.1519    297.92472 
    9580   0.95424233   -9356.6928   -230.89192    302.68863 
    9590   0.95423871    -9354.694   -255.58645    303.23245 
    9600   0.95423581   -9352.9485   -167.59407    302.49441 
    9610   0.95423343    -9351.543   -79.575824    300.76781 
    9620    0.9542313   -9350.3366   -109.39365    302.73747 
    9630   0.95422951   -9349.3752   -210.07451    306.38887 
    9640   0.95422829   -9348.6564   -121.65601    300.79956 
    9650   0.95422745   -9348.1717    17.441018     295.4149 
    9660   0.95422659   -9347.7613   -12.017016    297.56094 
    9670   0.95422576   -9347.2677   -36.816128    298.54772 
    9680   0.95422503   -9346.7364   -15.457679      296.789 
    9690   0.95422443   -9346.4767   -304.40082    304.41686 
    9700   0.95422472    -9346.271    -589.3774    307.29895 
    9710   0.95422672    -9346.357   -772.69153    307.68054 
    9720   0.95423097   -9346.7676   -860.86355    311.83361 
    9730   0.95423768   -9347.4261   -682.69221      305.711 
    9740   0.95424642   -9348.4162   -634.02114    305.09862 
    9750     0.954257   -9349.5195    -554.5288    307.01814 
    9760   0.95426913   -9350.6692   -320.33493    302.51028 
    9770   0.95428224   -9352.0595   -248.28134    304.32662 
    9780   0.95429601   -9353.4222   -120.36239    300.77392 
    9790   0.95431016   -9354.8804   -162.75912    298.84196 
    9800   0.95432482   -9356.2968   -425.82131    304.22346 
    9810   0.95434063   -9357.7421    -505.1098    304.82147 
    9820   0.95435786   -9359.4683   -427.12192    304.47774 
    9830   0.95437627    -9361.106   -183.96956     296.4582 
    9840   0.95439525   -9362.6109   -113.42813    294.56572 
    9850   0.95441453   -9364.2179   -186.07282    300.86515 
    9860   0.95443428   -9365.5807   -175.54057    297.52915 
    9870   0.95445455   -9366.9324   -303.40217    296.92024 
    9880   0.95447568   -9368.1835   -453.15853    298.25664 
    9890   0.95449807    -9369.493    -519.9921    301.63275 
    9900    0.9545219   -9370.8965   -423.05788    303.51955 
    9910   0.95454688    -9372.493    -228.5053    302.10159 
    9920   0.95457247   -9373.9935   -20.104367    296.17999 
    9930   0.95459814   -9375.3962   -17.135929    297.74674 
    9940    0.9546238   -9376.9939   -112.18645    302.66559 
    9950   0.95464968    -9378.469   -41.904529    298.76145 
    9960   0.95467563   -9380.1268    67.300958    297.66526 
    9970   0.95470127   -9381.5631    336.55374    292.72924 
    9980   0.95472594    -9382.978    307.77483     297.7963 
    9990   0.95474969   -9384.5712    59.154419    307.88193 
   10000   0.95477315   -9386.1876    9.0013611    305.53192 
   10010    0.9547965   -9387.8005    97.486812    298.87357 
   10020   0.95481956   -9389.8341    53.116478    303.50653 
   10030   0.95484237   -9391.8811    110.25314    300.56902 
   10040   0.95486483   -9393.8049    156.38552     293.5379 
   10050   0.95488684   -9395.5779    10.650415     299.2415 
   10060   0.95490869   -9397.4095     55.38727    297.44718 
   10070   0.95493031   -9399.2837    202.89702    294.89053 
   10080   0.95495127   -9400.9565    387.89151    289.88549 
   10090   0.95497111   -9402.4111    345.99344    289.52369 
   10100   0.95498995   -9403.7195    46.585537     295.8182 
   10110    0.9550086   -9404.9863   -232.12921    300.43685 
   10120   0.95502783   -9406.3586   -315.27396    303.98161 
   10130   0.95504787   -9407.7147   -145.24924    298.92746 
   10140    0.9550683   -9408.9875    46.927326    293.16628 
   10150   0.95508858   -9410.3327    69.987639    294.84282 
   10160   0.95510863   -9411.3896   -32.393676    295.86613 
   10170   0.95512872   -9412.7007   -131.87334    298.31345 
   10180   0.95514909   -9413.9127    18.919616    293.08883 
   10190   0.95516937   -9414.9531    213.90117    286.21191 
   10200   0.95518905   -9415.7905    74.168759    293.97726 
   10210   0.95520844   -9416.3608   -82.770833    299.35525 
   10220   0.95522799   -9417.1564   -84.967522    299.39326 
   10230   0.95524772   -9417.6301    28.350465    292.14455 
   10240   0.95526735   -9418.2457    99.683921      292.541 
   10250   0.95528663   -9418.7924    188.60771    296.44332 
   10260    0.9553053   -9419.1973    269.41942    294.20821 
   10270    0.9553232   -9419.5423    130.92107    296.69224 
   10280   0.95534067   -9419.9984   -34.810012    301.08702 
   10290   0.95535816   -9420.4723   -18.159817    296.49297 
   10300   0.95537566   -9420.9117    8.0893468    294.03195 
   10310   0.95539313   -9421.2209   -46.829608    295.78893 
   10320   0.95541068   -9421.4685    -70.54328    295.21131 
   10330   0.95542838   -9421.8392    10.200196    293.17088 
   10340   0.95544601   -9421.8999    79.100681    292.07201 
   10350    0.9554634   -9421.8964    12.622842    295.36001 
   10360   0.95548067   -9421.6011    55.273988    292.61361 
   10370   0.95549777   -9421.4962    20.339906    296.50414 
   10380   0.95551472   -9420.9753     106.0179    294.88453 
   10390    0.9555313   -9420.2784    280.24558    290.85244 
   10400   0.95554706   -9419.6574    277.82185    294.41022 
   10410   0.95556197    -9418.454    193.27004    291.45587 
   10420   0.95557637   -9417.2341   -194.52424    302.60864 
   10430   0.95559123   -9415.6874   -389.42075    307.50522 
   10440   0.95560712   -9414.2164   -251.51484    300.92932 
   10450   0.95562374   -9412.9408   -132.02514    295.45802 
   10460   0.95564076   -9411.2407    -166.8346    293.23799 
   10470   0.95565828   -9409.4106   -372.96337    299.49928 
   10480   0.95567679   -9407.1173   -412.26707    302.45783 
   10490   0.95569646   -9404.9986   -373.92952    308.75106 
   10500    0.9557171    -9402.828   -128.15272    300.75555 
   10510   0.95573813   -9400.9059    21.478131    296.58492 
   10520   0.95575904   -9398.5247    175.05796    293.38473 
   10530   0.95577943   -9396.1433    170.45205     296.5589 
   10540   0.95579926   -9393.4891    64.197604    299.77623 
   10550   0.95581886   -9390.8072   -22.740838    301.04706 
   10560   0.95583845    -9387.943    16.579712    296.54341 
   10570   0.95585796   -9385.1046    91.553872    292.66611 
   10580   0.95587715   -9381.9254    169.96716    291.02397 
   10590   0.95589583   -9378.5601    106.85166    297.90874 
   10600   0.95591412   -9374.9971    69.548539     296.5312 
   10610    0.9559322   -9371.4051   -52.027865     296.3716 
   10620    0.9559504   -9367.6782   -186.51411    298.83644 
   10630    0.9559691    -9363.882   -293.48048    302.37904 
   10640   0.95598861   -9360.2804   -456.89327    308.68867 
   10650   0.95600936   -9356.8357   -386.42671    303.12902 
   10660   0.95603117   -9353.6854   -130.46971    296.12671 
   10670   0.95605335   -9350.5432    30.809207    294.35257 
   10680   0.95607545   -9347.2836   -42.568423    295.35926 
   10690   0.95609765   -9344.0539   -237.05862    299.61551 
   10700   0.95612044   -9340.8132    -274.6633    301.56506 
   10710   0.95614392   -9337.6955   -111.21223    298.38489 
   10720   0.95616772   -9334.7205   -99.706318     300.7388 
   10730   0.95619174   -9331.8976    -119.1381    306.71123 
   10740   0.95621599   -9329.2472    84.462501    303.22494 
   10750   0.95623993   -9326.6772    326.82288    296.32474 
   10760   0.95626291   -9324.3293    360.63268    298.65942 
   10770   0.95628477   -9321.7116    355.79897    298.83424 
   10780   0.95630558   -9319.4093    185.73036    302.91294 
   10790   0.95632578   -9317.3748    -10.35503    309.12498 
   10800    0.9563459   -9315.5393    58.160649    305.68278 
   10810   0.95636579   -9314.0654    132.12294    304.27662 
   10820   0.95638524   -9312.6943    247.06174    299.89795 
   10830   0.95640394   -9311.5099    303.89867    300.95591 
   10840   0.95642168    -9310.316    367.25505    299.62656 
   10850   0.95643837   -9309.3494    212.63422    302.35211 
   10860   0.95645442   -9308.4344   -93.388168    302.15909 
   10870   0.95647074   -9307.4481   -469.55418    303.80349 
   10880   0.95648837   -9306.8449   -734.70477    312.95751 
   10890   0.95650797   -9306.4044   -490.20452    305.60283 
   10900   0.95652901   -9306.4821   -300.78363    299.70608 
   10910   0.95655091   -9306.4923   -245.31074    299.06217 
   10920    0.9565735   -9306.7487   -317.36589    304.58797 
   10930   0.95659695   -9307.0591   -371.16614    305.33423 
   10940   0.95662142   -9307.4202   -325.50884    299.56835 
   10950   0.95664679   -9308.0424   -263.09944     298.3041 
   10960   0.95667286   -9308.7083   -193.84515    303.98942 
   10970   0.95669937   -9309.5015     13.68067    302.21604 
   10980   0.95672582   -9310.5113    89.781074    298.77902 
   10990     0.956752   -9311.4143   -63.145806    300.05902 
   11000   0.95677832   -9312.5172   -265.23234    307.18957 
   11010   0.95680525   -9313.9935   -153.14609    306.87229 
   11020   0.95683255   -9315.6123    60.050461    303.90229 
   11030   0.95685961   -9317.6037    229.57401    304.58412 
   11040   0.95688592   -9319.7249    390.86023    301.59514 
   11050   0.95691108      -9322.3    352.38908    306.11718 
   11060   0.95693511   -9325.1181    353.41308    302.30187 
   11070   0.95695809   -9328.1326    193.82319     303.1373 
   11080    0.9569804   -9331.2928      177.016    300.48004 
   11090   0.95700216   -9334.6999    119.68575     301.7552 
   11100   0.95702351   -9338.5788    27.119066    305.95358 
   11110    0.9570447   -9342.7056    12.619221    306.98811 
   11120   0.95706577   -9346.9931    51.574533    303.44531 
   11130   0.95708667   -9351.8296    50.139874    303.35179 
   11140   0.95710734   -9356.4053    160.38528    295.25837 
   11150   0.95712757   -9361.0311    34.425903    298.07465 
   11160   0.95714762   -9365.7859    -109.1672    303.61207 
   11170   0.95716789   -9370.3864   -75.507535    299.88887 
   11180   0.95718839   -9375.3688   -277.18375    307.87846 
   11190   0.95720959   -9380.1225   -237.18114    302.01267 
   11200   0.95723143   -9384.9708   -63.575497    296.57876 
   11210    0.9572534    -9389.467    75.562692    296.03668 
   11220   0.95727511   -9393.6097    95.847951    296.82988 
   11230   0.95729647   -9397.3309    124.54704    293.96687 
   11240   0.95731747   -9400.7078    25.223038    296.03898 
   11250   0.95733835   -9403.7716   -135.35571    297.90092 
   11260   0.95735957   -9406.6478   -263.26789    296.41047 
   11270   0.95738148   -9409.1955   -330.86447    296.75853 
   11280   0.95740433   -9411.5206   -401.23909    300.84289 
   11290   0.95742825   -9413.7313   -338.86763    298.60996 
   11300   0.95745316   -9415.8938   -387.81542    300.77431 
   11310   0.95747913   -9418.0195   -455.70896    302.75355 
   11320   0.95750631   -9419.5621   -297.46356    290.73669 
   11330   0.95753439   -9421.2335   -422.94359     297.7447 
   11340   0.95756359   -9422.5657   -424.39407    299.65257 
   11350   0.95759395   -9424.0064   -355.37204     295.7531 
   11360   0.95762524   -9425.0974     -147.837    287.32099 
   11370   0.95765693    -9425.743    2.4960793     283.6435 
   11380   0.95768857   -9426.1652   -95.376228    292.16968 
   11390   0.95772042   -9426.3147   -257.50353    298.26561 
   11400   0.95775289   -9426.2891   -228.80142    293.00877 
   11410   0.95778598   -9426.3631    -216.4133    292.99273 
   11420   0.95781961   -9426.3916   -231.13006    298.03659 
   11430   0.95785377   -9426.0321   -109.34815    292.75418 
   11440    0.9578883     -9425.91   -391.53209    302.83574 
   11450   0.95792383   -9425.8388   -530.13263    304.33085 
   11460   0.95796081   -9425.8681    -474.0851    300.89694 
   11470   0.95799905   -9426.0453    -296.2328    295.56468 
   11480    0.9580381   -9426.0499   -201.34652    296.17279 
   11490   0.95807763   -9426.1627   -177.62974    304.49841 
   11500    0.9581175   -9426.1891    100.05921    298.25572 
   11510   0.95815703   -9426.3591    258.06338    292.51002 
   11520   0.95819573   -9426.2982    293.27107    289.17556 
   11530    0.9582335    -9426.155    212.38559    292.38751 
   11540    0.9582705   -9425.7754    279.37376    295.88927 
   11550   0.95830651   -9425.0381    550.48541    285.83262 
   11560   0.95834098   -9424.5265    286.46916    294.70602 
   11570   0.95837448   -9423.5404    61.043824    295.95623 
   11580   0.95840769   -9422.4886    9.6105394    294.84088 
   11590   0.95844073   -9421.5326    108.41171    295.21112 
   11600    0.9584734   -9420.4949    51.276836    297.58953 
   11610   0.95850585   -9419.3117   -107.88655    302.25325 
   11620   0.95853848   -9418.2148   -36.200513    294.56127 
   11630   0.95857119    -9417.085   -77.736225    294.51351 
   11640   0.95860406   -9415.7701   -221.34444    299.74537 
   11650   0.95863747   -9414.5187   -300.69821    302.61718 
   11660   0.95867163   -9413.2879    -243.9276    304.84338 
   11670    0.9587064   -9412.3411   -175.32104    307.44013 
   11680   0.95874163    -9411.571   -203.99449    308.28045 
   11690   0.95877737   -9411.3338   -249.90799    308.51656 
   11700   0.95881373   -9411.3551   -175.98713    304.40222 
   11710   0.95885052   -9411.3138   -56.377411    295.99478 
   11720   0.95888743   -9411.4517   -149.57322    300.27183 
   11730   0.95892462   -9411.4748   -90.151634    303.83892 
   11740   0.95896192   -9411.6792    166.94437    298.34346 
   11750   0.95899871   -9412.0252    200.70465    302.34643 
   11760    0.9590348   -9412.5499    243.86423    301.67351 
   11770   0.95907004    -9412.976    403.75127    292.87174 
   11780   0.95910409   -9413.7231    286.44631    298.26026 
   11790   0.95913718   -9414.2533     151.5795    297.32197 
   11800   0.95916975   -9414.6728    27.736794    292.45701 
   11810   0.95920222   -9415.1079   -246.57476    301.81668 
   11820   0.95923523   -9415.6472     -247.382    305.07078 
   11830    0.9592688   -9416.3639    50.295805     295.1826 
   11840   0.95930223    -9417.133    135.55554    294.62194 
   11850   0.95933517   -9417.8653    122.86722    299.19614 
   11860   0.95936763   -9418.6317    196.30897    295.22698 
   11870   0.95939947   -9419.5184    166.03337    296.93171 
   11880   0.95943069   -9420.1726    245.91287    294.81149 
   11890   0.95946114   -9421.0288    253.56325    294.51305 
   11900   0.95949076   -9421.8044    225.60132    290.85818 
   11910   0.95951967   -9422.4308    153.43347    289.59368 
   11920   0.95954807   -9422.8953   -13.704775    295.40284 
   11930   0.95957643    -9423.154   -194.27888    299.44345 
   11940   0.95960524   -9423.4436   -171.20171    293.66362 
   11950   0.95963451   -9423.8122   -143.78896    293.85578 
   11960   0.95966409   -9424.1206   -76.757037    296.15779 
   11970   0.95969382   -9424.3083    2.4311041    293.74773 
   11980   0.95972348   -9424.5186    30.165486    291.97649 
   11990   0.95975295   -9424.1579    122.46399    285.63147 
   12000   0.95978205   -9423.7824    7.3382031     290.7369 
   12010   0.95981108   -9423.2548   -274.61689    303.26568 
   12020   0.95984076   -9422.5329   -309.14471    299.34914 
   12030   0.95987131   -9421.9718   -390.42666    296.54328 
   12040   0.95990293   -9421.2876   -463.41562    296.90715 
   12050   0.95993577   -9420.3891   -321.28431    294.11915 
   12060   0.95996947   -9419.5113   -183.89083    294.43939 
   12070   0.96000363   -9418.4723   -109.32891     294.0557 
   12080   0.96003803   -9417.1404   -102.17463    294.55669 
   12090   0.96007267   -9415.8345   -195.17379    298.29026 
   12100   0.96010772   -9414.2264   -75.607303    295.52033 
   12110   0.96014292   -9412.5928    28.856888    293.41133 
   12120   0.96017799   -9410.6738   -28.866162    294.76325 
   12130   0.96021309   -9408.6575   -254.42855    302.64944 
   12140   0.96024879   -9406.4323   -291.89745    301.10263 
   12150   0.96028527   -9404.3263   -332.46281    299.49853 
   12160    0.9603226   -9402.1714   -263.35235    295.82209 
   12170   0.96036063   -9400.0585   -258.52206    298.54984 
   12180   0.96039926   -9397.7331   -112.94258    294.14919 
   12190   0.96043821   -9395.3889   -202.99116    297.70917 
   12200   0.96047767   -9392.9174   -409.16466    304.72727 
   12210   0.96051814   -9390.4622   -319.97223    300.94589 
   12220   0.96055942   -9388.0037   -100.78128    295.70816 
   12230   0.96060095   -9385.6737   -85.035149    299.83709 
   12240   0.96064262   -9383.2473   -127.47445    300.38731 
   12250   0.96068457   -9380.8408   -196.55393    300.00772 
   12260     0.960727   -9378.5185   -325.65366    304.08327 
   12270   0.96077026    -9376.235   -408.77461    307.27886 
   12280   0.96081457   -9374.2659   -330.83822    306.25227 
   12290   0.96085969   -9372.3265   -117.52902    299.63111 
   12300   0.96090508   -9370.6236   -12.605954    300.92968 
   12310    0.9609504   -9368.8219    19.964876    299.83937 
   12320   0.96099555   -9367.3333   -37.006318    305.00842 
   12330   0.96104057   -9365.4915    305.12616    293.59565 
   12340   0.96108467   -9363.9052    339.58942    297.30181 
   12350   0.96112767   -9362.3186     248.1927    301.21338 
   12360   0.96116979   -9360.5853    286.27994    293.58407 
   12370   0.96121103   -9358.8932    161.51896    297.45928 
   12380   0.96125165   -9357.0867    48.008452    302.76258 
   12390   0.96129204   -9355.3688   -145.30368    304.94185 
   12400   0.96133276   -9353.7315   -360.79399    305.07765 
   12410   0.96137444   -9352.5415   -552.54314    308.23551 
   12420   0.96141756   -9351.2821   -410.65799    298.16789 
   12430   0.96146185   -9350.3195   -441.78166    304.11248 
   12440   0.96150725   -9349.3294    -382.2087    309.81808 
   12450    0.9615536   -9348.6683    -99.23046    304.11412 
   12460   0.96160015   -9348.2489    88.189037    300.80233 
   12470   0.96164634   -9347.8894    157.61297    301.38749 
   12480   0.96169192   -9347.5065     239.1365    299.72234 
   12490   0.96173673   -9347.5037    181.58675     307.0917 
   12500   0.96178078   -9347.4572     393.2841     302.0656 
   12510   0.96182362   -9347.7754    416.78334    307.89196 
   12520   0.96186508   -9348.0743    493.10935    304.10233 
   12530   0.96190502   -9348.6816    466.11106     301.2602 
   12540   0.96194348   -9349.4469     500.1587    299.68217 
   12550   0.96198036    -9350.393    531.26208    303.36536 
   12560   0.96201559   -9351.4416    473.34329    304.47321 
   12570   0.96204935   -9352.8646    377.62243    303.69664 
   12580   0.96208188   -9354.4917    357.93229    298.78042 
   12590   0.96211335   -9356.2677    136.70235    304.66747 
   12600   0.96214428   -9358.4463    48.801796    307.57679 
   12610   0.96217494   -9360.8159    124.20036    305.18907 
   12620   0.96220514   -9363.7429    198.12016    304.32577 
   12630   0.96223468   -9366.7588    254.25444    301.30371 
   12640   0.96226345   -9370.1167    123.26109    302.86007 
   12650   0.96229179   -9373.8646   -18.544512    302.90564 
   12660   0.96232008    -9377.859   -53.788512    302.19954 
   12670    0.9623484   -9382.1053     86.52932    298.74213 
   12680   0.96237641   -9386.6697    174.99458    299.02976 
   12690   0.96240385   -9391.0147     174.0905    295.39425 
   12700   0.96243075   -9395.5257    54.724745    295.43903 
   12710   0.96245741   -9399.8865   -49.193064    296.55394 
   12720   0.96248414   -9404.4161   -155.41649    302.18593 
   12730   0.96251118   -9408.7793   -51.885386    298.49747 
   12740   0.96253835   -9413.3175   -46.645689    298.45296 
   12750   0.96256557   -9417.7778    -65.56458    300.58018 
   12760   0.96259287   -9422.2196    40.299089    298.47274 
   12770      0.96262   -9426.5092    107.76552    297.41248 
   12780   0.96264676    -9430.664    82.804813    298.87347 
   12790   0.96267318   -9434.6332    104.68765    298.49754 
   12800    0.9626992   -9438.2695    172.70393    293.80849 
   12810   0.96272472   -9441.8314   -8.3863593    301.02161 
   12820   0.96275018   -9445.2086   -208.43218    302.23151 
   12830   0.96277619   -9448.3972   -329.53358    298.53383 
   12840   0.96280309   -9451.4824   -414.39144    298.54701 
   12850   0.96283108   -9454.2646   -311.63752     294.7209 
   12860   0.96285989   -9456.7234   -82.125402    289.89661 
   12870    0.9628889   -9458.8745    22.715579    289.36307 
   12880   0.96291781   -9460.7095   -36.135438    292.74016 
   12890   0.96294673    -9462.043   -71.138525    289.54165 
   12900   0.96297583   -9463.2107   -251.53696    291.98695 
   12910   0.96300558   -9464.0792   -412.72706    294.86352 
   12920   0.96303646   -9464.8021   -545.29136    300.71818 
   12930   0.96306882   -9465.6151   -564.44621    301.23779 
   12940   0.96310273   -9466.1008   -437.67981    294.14964 
   12950   0.96313786   -9466.8259     -367.472    298.18096 
   12960   0.96317391   -9467.2718   -111.95392    291.09861 
   12970   0.96321023   -9467.5918    58.105578    288.21854 
   12980    0.9632463   -9467.8421    136.66021     287.9993 
   12990    0.9632819   -9467.6657    113.65905    287.53702 
   13000   0.96331709   -9467.3964   -1.6583251    293.76342 
   13010   0.96335212   -9466.6606    75.575377    292.77036 
   13020   0.96338682    -9465.881    229.88312    291.16681 
   13030   0.96342076   -9464.9573    339.24191    289.74253 
   13040   0.96345366   -9463.9171    239.12814    293.19095 
   13050   0.96348579   -9462.6064    8.0871204    296.00297 
   13060   0.96351782   -9461.3182   -232.91985    300.18716 
   13070   0.96355038   -9460.0103   -194.46771    296.52367 
   13080   0.96358344   -9458.7949   -115.61478    292.78193 
   13090   0.96361677   -9457.5791   -68.579048    293.32106 
   13100   0.96365017   -9456.0397     78.63137    288.47854 
   13110   0.96368332   -9454.5829    17.238787      294.478 
   13120   0.96371627   -9452.7356    56.712922    294.89412 
   13130   0.96374898   -9451.0775    95.470405    296.07005 
   13140   0.96378133    -9449.241    114.38038    295.51434 
   13150   0.96381328   -9447.3346      68.6383    295.77263 
   13160   0.96384493    -9445.439    43.373451    297.10028 
   13170   0.96387636    -9443.496    87.624642    295.53849 
   13180   0.96390745   -9441.6982     133.0574    296.14098 
   13190     0.963938    -9439.742    299.92718    294.79383 
   13200   0.96396759   -9437.6303     480.3912    292.02954 
   13210   0.96399574    -9435.388    483.06144    293.51871 
   13220   0.96402241   -9433.2361    434.44712    294.92624 
   13230    0.9640477   -9430.8653    509.53771    292.95539 
   13240   0.96407145   -9428.4118    490.73889    298.25513 
   13250   0.96409367   -9426.0747    477.21086    302.46015 
   13260   0.96411438   -9423.8357     646.0539    297.80375 
   13270   0.96413313   -9421.5154    866.08245    292.01304 
   13280   0.96414934   -9419.2732    849.27793    300.00688 
   13290   0.96416296   -9417.0396    890.16676    303.82838 
   13300   0.96417391   -9414.8566    998.62729    298.04429 
   13310   0.96418194   -9412.7995    1028.3239    294.08938 
   13320   0.96418695   -9410.6557    1016.4896    293.66444 
   13330   0.96418892   -9408.4885    1113.9961    289.14859 
   13340   0.96418768   -9406.2603    972.45815    294.48934 
   13350   0.96418358   -9403.9609    765.27163    301.82537 
   13360   0.96417719    -9401.629    701.05448     300.3579 
   13370   0.96416878   -9399.4925    668.43624    300.40162 
   13380   0.96415836   -9397.3966    857.61192    297.62859 
   13390   0.96414546   -9395.5506    1017.4861    296.98662 
   13400    0.9641296   -9393.6771    1105.6095    298.45965 
   13410   0.96411053   -9391.7811    1187.6442    296.26205 
   13420   0.96408806   -9390.1969    1097.8596    298.80545 
   13430    0.9640624   -9388.4559    1053.7342    299.64838 
   13440   0.96403372   -9386.9767    995.95897    303.15424 
   13450   0.96400218   -9385.6271     929.2449      301.025 
   13460   0.96396805   -9384.4452    743.64666    300.05687 
   13470   0.96393182    -9383.324    561.14549    301.57547 
   13480   0.96389402   -9382.4928    463.24234    307.63551 
   13490   0.96385486   -9381.7344     686.5348    304.18603 
   13500   0.96381383   -9381.4306    808.79669    302.36825 
   13510   0.96377056   -9380.9919    827.23159     298.2453 
   13520     0.963725   -9380.7853    776.25766    299.26772 
   13530   0.96367727   -9380.3601    714.76984    298.05208 
   13540   0.96362759   -9380.2568     596.2946    299.83926 
   13550   0.96357627   -9380.1433    574.16306    300.21918 
   13560   0.96352338   -9380.1403    586.16856    299.62496 
   13570   0.96346892   -9380.2916    564.87449    301.01526 
   13580   0.96341296   -9380.4688     450.8498    301.05614 
   13590   0.96335586   -9380.5561    269.24994    301.03851 
   13600   0.96329812   -9380.7832     118.2492    305.37057 
   13610   0.96324011   -9381.0944    230.93019    302.26197 
   13620   0.96318158   -9381.5938    387.82847    298.51324 
   13630   0.96312211   -9382.1947     437.9243    301.25844 
   13640    0.9630615   -9382.7404    472.41357    303.87773 
   13650   0.96299964   -9383.4455    594.36089    299.89666 
   13660   0.96293619   -9384.1966    741.01721    295.13519 
   13670   0.96287079    -9384.701    705.04217    294.53736 
   13680   0.96280355   -9385.2139    427.71859    303.65526 
   13690   0.96273515   -9385.8228    374.56224    305.15929 
   13700   0.96266583   -9386.5132    473.89671     300.9346 
   13710   0.96259535    -9387.261    438.85748    299.51453 
   13720   0.96252383   -9388.1044    184.62108    304.35648 
   13730   0.96245194   -9388.9604    8.2204707    307.75058 
   13740   0.96238018   -9390.0699   -67.229001    311.00944 
   13750   0.96230876    -9391.537    31.955777    309.52389 
   13760   0.96223743   -9392.9128     256.2788    298.61149 
   13770   0.96216565   -9394.5106    168.49902    303.35777 
   13780   0.96209354   -9395.8882    130.85195    301.26818 
   13790   0.96202128   -9397.4766    26.533471    304.70874 
   13800   0.96194911   -9399.0939    28.729552     305.4363 
   13810     0.961877   -9400.8229    198.22976    301.64043 
   13820    0.9618045   -9402.3693    436.06137    294.86626 
   13830   0.96173097   -9403.5892    510.83167    292.21036 
   13840    0.9616562   -9404.8711    335.73121    296.78907 
   13850   0.96158064   -9405.7948    182.56225    297.30139 
   13860   0.96150477   -9407.1026    29.809611    303.61188 
   13870   0.96142896    -9407.946    53.981917    300.44531 
   13880   0.96135325   -9409.0215   -26.957989    301.47915 
   13890    0.9612778   -9410.1386   -36.494043    304.68765 
   13900   0.96120262   -9411.4011    173.30215    299.68527 
   13910   0.96112718   -9412.4016    274.17891    292.65524 
   13920   0.96105125     -9413.59    51.006041    298.89514 
   13930   0.96097527   -9414.5052    111.59869    295.40835 
   13940   0.96089919   -9415.4257    208.25961    294.15656 
   13950   0.96082273   -9416.0937    209.83188    293.10752 
   13960   0.96074593   -9416.6349    10.450269    300.93929 
   13970   0.96066923   -9417.2578    72.758527    299.46026 
   13980   0.96059249   -9417.8562    340.75157    293.52384 
   13990   0.96051501   -9418.2689    535.20863    291.21114 
   14000   0.96043622    -9418.473    549.71764    289.46396 
   14010    0.9603561   -9418.6508    336.21484     294.6705 
   14020   0.96027519   -9418.4649     166.8109    294.13312 
   14030   0.96019404   -9418.2731   -34.096059    295.42996 
   14040   0.96011319      -9418.1   -124.77875    295.76607 
   14050   0.96003286   -9417.5854    96.161338    286.12072 
   14060   0.95995257   -9417.0032    97.977811     291.3118 
   14070   0.95987222   -9416.2032     33.08678    292.27491 
   14080   0.95979202   -9415.0927   -83.945286    288.64464 
   14090   0.95971233   -9413.9039   -260.16116    291.20472 
   14100   0.95963359   -9412.3832   -235.50309    288.21971 
   14110    0.9595558   -9410.5607   -229.60627    288.13143 
   14120    0.9594789   -9408.4888   -203.36278     286.9152 
   14130   0.95940283   -9406.1209   -222.74749    289.59847 
   14140   0.95932763    -9403.594   -290.15982    296.99144 
   14150   0.95925345   -9400.7542   -189.31165     295.0219 
   14160   0.95918009   -9397.9526   -164.20706    292.52878 
   14170   0.95910744   -9395.0565   -225.90484    296.12758 
   14180   0.95903561   -9391.8453   -162.70644    296.14137 
   14190   0.95896452   -9388.9331   -272.15754    306.43153 
   14200   0.95889436   -9386.0861   -139.02573    302.59661 
   14210   0.95882484   -9383.4189   -7.4177203    298.89411 
   14220   0.95875554   -9380.8218    154.06723    293.71628 
   14230   0.95868602   -9378.1139    206.77921    291.79011 
   14240   0.95861613   -9375.4223    103.08841    298.91875 
   14250   0.95854609   -9372.4477      94.6455    299.96587 
   14260   0.95847598   -9369.7457    162.77965    295.55825 
   14270   0.95840564   -9367.0008    151.95887     294.2975 
   14280   0.95833507   -9364.3692    50.448089    299.49964 
   14290   0.95826455   -9361.6387   -2.8169325    305.79103 
   14300   0.95819418   -9359.0709    104.00011    308.00193 
   14310   0.95812368    -9356.936    359.41715    300.04904 
   14320   0.95805242   -9355.0743    344.77057    298.94097 
   14330   0.95798041   -9353.3159    84.495765    305.96263 
   14340   0.95790828   -9351.5626    107.18496     301.2553 
