
variable systemNsize equal 10
variable rndSeed equal 1234
variable Nrun equal 500000
variable Nstab equal 2000
variable NdumpStats equal 10
variable NdumpFrames equal 1000
variable Text equal 298.0
variable Pext equal 1.0

units real
    # g/mol, A, fs, Kcal/mol, K, atm, g/cm^3
atom_style full
read_data SPCE.data
  orthogonal box = (0 0 0) to (3.1 3.1 3.1)
  1 by 2 by 3 MPI processor grid
  reading atoms ...
  3 atoms
  scanning bonds ...
  2 = max bonds/atom
  scanning angles ...
  1 = max angles/atom
  reading bonds ...
  2 bonds
  reading angles ...
  1 angles
  2 = max # of 1-2 neighbors
  1 = max # of 1-3 neighbors
  1 = max # of 1-4 neighbors
  2 = max # of special neighbors
  special bonds CPU = 0.000725985 secs
  read_data CPU = 0.00341511 secs

replicate ${systemNsize} ${systemNsize} ${systemNsize}
replicate 10 ${systemNsize} ${systemNsize}
replicate 10 10 ${systemNsize}
replicate 10 10 10
  orthogonal box = (0 0 0) to (31 31 31)
  1 by 2 by 3 MPI processor grid
  3000 atoms
  2000 bonds
  1000 angles
  2 = max # of 1-2 neighbors
  1 = max # of 1-3 neighbors
  1 = max # of 1-4 neighbors
  2 = max # of special neighbors
  special bonds CPU = 0.000517845 secs
  replicate CPU = 0.00249815 secs

include SPCE.long
# Original model from Berendsen et al, J Phys Chem 91:6269 (1987)
# Charges and geometry are specified in the ".data" file.

mass 1 1.00794 # H
mass 2 15.9994 # O

pair_style lj/cut/coul/dsf 0.05 10.0

#pair_style lj/cut/coul/long 10.0
    # LJ_Rcut (Coul_Rcut)
pair_modify tail yes
    # assumtions and approximations:
    # 1) 3d bulk homogeneous liquid (+)
    # 2) RDF is unity beyond the cutoff
    # 3) It's computed at the begining of the run
    # 4) atoms don't feel additional energy but it's added to the PE etc
#kspace_style pppm 1.0e-5
    # accuracy - desired relative error in forces

pair_coeff 1 1 0.00000 0.000
pair_coeff 1 2 0.00000 0.000
    # TODO - I would put here the sizes of H and O atoms instead of one big LJ repulsion from the O atom. What "e" to choose is still a question.
pair_coeff 2 2 0.65 3.166
    # epsilon, sigma, [LJ_Rcut, [Coul_Rcut]]
    # distance between H and O is 1.0 so 3.166 > 1.0 accounts for the size of a molecule as a whole
    # I guess the major part in forces inside a molecule are indeed due to OH and HOH (angle) bondings, so computing LJ and Coul for them would be practically a waste of time so it may be ommitted. So I see only an optimizational reason to set LJ coefs to 0 for H atoms inside a molecule. However here (as far as I understand) we set all LJ coefs to 0. I understand LJ is a short-rage potential so its contribution can be neglegible compared to Coul, but it's not obvious for me why it actually is.
    # TODO - there might be a more correct way to ommit unnecessary interaction by using special_bond

bond_style harmonic
    # E = k(r-r0)^2
bond_coeff 1 0.0 1.0
    # bondID k r0
    # ? - how does k=0 make sense?
    # Is this to formaly bond atoms but actual bonding is done by rattle?

angle_style harmonic
angle_coeff 1 0.0 109.47
    # ? - same, how does k=0 make sense?


velocity all create ${Text} ${rndSeed}
velocity all create 298 ${rndSeed}
velocity all create 298 1234

fix removeMomentum all momentum 1 linear 1 1 1 angular
    # 1 - adjust the momentum every 1 timesteps
    # linear 1/0 1/0 1/0 - zero the P_x/y/z
    # angular - zero angular momentum (TODO - add "angular" here?)
    # scale - scale velocities after the adjustment so T is conserved (TODO - add "scale" here?)

fix stab_iso all npt temp ${Text} ${Text} $(50.0*dt) iso ${Pext} ${Pext} $(500.0*dt)
fix stab_iso all npt temp 298 ${Text} $(50.0*dt) iso ${Pext} ${Pext} $(500.0*dt)
fix stab_iso all npt temp 298 298 $(50.0*dt) iso ${Pext} ${Pext} $(500.0*dt)
fix stab_iso all npt temp 298 298 50 iso ${Pext} ${Pext} $(500.0*dt)
fix stab_iso all npt temp 298 298 50 iso 1 ${Pext} $(500.0*dt)
fix stab_iso all npt temp 298 298 50 iso 1 1 $(500.0*dt)
fix stab_iso all npt temp 298 298 50 iso 1 1 500
    # Tstart,Tstop = external temperature at start/end of run
    # Tdamp = temperature damping parameter (time units)
    # temp - for thermostat, iso - for barostat

fix stab_constrain all rattle 1.0e-5 100 0 b 1 a 1
  0 = # of size 2 clusters
  0 = # of size 3 clusters
  0 = # of size 4 clusters
  1000 = # of frozen angles
  find clusters CPU = 0.000338078 secs
    # fix ID group-ID shake tol iter N constraint1 value1 ...
    # iter - max # of iterations in each SHAKE solution
    # print SHAKE statistics every N many timesteps (0 = never)
    # b - bonds, a - angles
    # b 1 - bonds of type 1
    # a 1 - bonds of type 1
    # shake adds forces to make the displacement satisfy constraints - e.g. |r_ij|=d
    # rattle does the same and additionally it refines velocities - e.g. (|r|)'_t = 0.
    # *should be defined after other force- and v- modifiers since it doesn't account for them

thermo_style custom step density press temp
thermo ${NdumpStats}
thermo 10
run ${Nstab}
run 2000
Neighbor list info ...
  update every 1 steps, delay 10 steps, check yes
  max neighbors/atom: 2000, page size: 100000
  master list distance cutoff = 12
  ghost atom cutoff = 12
  binsize = 6, bins = 6 6 6
  1 neighbor lists, perpetual/occasional/extra = 1 0 0
  (1) pair lj/cut/coul/dsf, perpetual
      attributes: half, newton on
      pair build: half/bin/newton
      stencil: half/bin/3d/newton
      bin: standard
Per MPI rank memory allocation (min/avg/max) = 8.713 | 8.868 | 9.125 Mbytes
Step Density Press Temp 
       0    1.0041648    46677.657    296.38482 
      10   0.99755294    38125.685    398.63428 
      20   0.98115289    20489.235     891.5731 
      30   0.96423678    13799.399    1052.9469 
      40   0.95134853    13394.256    879.47365 
      50   0.94070438    11796.502    786.83906 
      60   0.93078288    9883.0708     728.8171 
      70   0.92136269    8146.5847    681.65722 
      80   0.91269361    6688.0689     643.4902 
      90   0.90501443    5195.7018    624.25947 
     100   0.89842524    4251.5456    588.26906 
     110   0.89280977    3398.8298    547.51858 
     120   0.88804248    2122.9399    527.69985 
     130   0.88409846    1318.4592    502.42575 
     140   0.88089281    756.62925    478.61186 
     150   0.87832309    117.63992    458.50841 
     160   0.87635025   -550.50017    444.10775 
     170   0.87497605   -1195.2778    439.35107 
     180   0.87420035    -1334.463    419.90253 
     190   0.87393526   -1339.1047    392.68042 
     200   0.87409108   -1739.1245    387.22328 
     210   0.87468074   -2010.6585    377.12224 
     220   0.87570411   -2118.2849    361.74524 
     230   0.87712392    -2200.457    352.20957 
     240     0.878895   -2168.7418     345.1337 
     250   0.88096239   -2277.0906    344.45676 
     260   0.88329893   -2170.4217    330.65929 
     270   0.88583954   -2045.3411    318.55643 
     280   0.88851345   -2021.1283    316.94374 
     290   0.89128136   -2017.1242    314.87692 
     300   0.89411936   -2027.8931    311.85898 
     310   0.89700809   -1956.3045    313.77442 
     320   0.89990252   -1530.0653    303.33311 
     330     0.902693   -1162.0686    296.85149 
     340   0.90529514   -939.77592    294.71876 
     350   0.90767646   -668.58082    290.76092 
     360   0.90981514   -620.97831    288.57152 
     370   0.91174765   -844.22641    291.68412 
     380   0.91356692   -983.73598    290.72252 
     390   0.91533787   -1082.5523    294.99258 
     400   0.91709434   -949.06587    288.84282 
     410   0.91881249    -722.1274    280.70605 
     420   0.92045013    -746.2013    285.64267 
     430   0.92202464   -837.68717    293.06239 
     440   0.92357263   -879.75131     300.7934 
     450   0.92510978   -718.79869    297.36873 
     460   0.92660714   -661.02638    296.78513 
     470   0.92805237    -535.0727    294.91281 
     480   0.92942377   -388.25619       297.08 
     490   0.93069515   -235.84666    296.27592 
     500   0.93184765   -227.90298    300.10594 
     510   0.93289649   -306.33598    301.65671 
     520   0.93388101   -395.12045    300.11541 
     530   0.93483463   -441.44797    300.58651 
     540   0.93577852   -481.18137    299.16434 
     550   0.93672463   -452.56762    298.77091 
     560   0.93766625   -339.18414    292.89172 
     570   0.93858551   -471.26394    297.06493 
     580   0.93951127    -448.7969    294.71841 
     590   0.94044293   -364.81278    295.03647 
     600    0.9413522   -113.21852    289.49712 
     610   0.94218023    62.533845    291.64573 
     620   0.94288582    209.37968    295.40695 
     630   0.94344751    353.05175    294.09564 
     640   0.94384538    426.78611    293.71483 
     650   0.94408354    291.92322    297.71819 
     660   0.94421196    186.33373    296.36393 
     670   0.94427481    102.95948    297.89658 
     680   0.94430075    69.166035    299.01601 
     690   0.94430398    91.038009    295.84365 
     700   0.94428635   -7.3580458    297.55834 
     710   0.94426975   -14.816929    296.20686 
     720    0.9442621   -94.856373    302.69125 
     730   0.94428251   -229.55474    310.30943 
     740    0.9443556   -67.979017    304.28514 
     750   0.94444074    163.04677    295.67869 
     760   0.94447343    328.01865    291.72177 
     770   0.94441651    268.59604    295.57916 
     780    0.9442887    215.75061    293.97734 
     790    0.9441182   -4.5398293    302.24618 
     800   0.94396225   -164.59856    311.63842 
     810   0.94385717    84.011991    296.85749 
     820   0.94374963    37.681731    298.82272 
     830   0.94363867   -25.051541    301.79134 
     840   0.94354429   -74.044945     299.9886 
     850   0.94348379   -268.22205    303.02077 
     860    0.9434972   -209.32907    295.01847 
     870   0.94356848   -111.57292    296.25699 
     880   0.94366346     8.399309     294.5575 
     890    0.9437515    3.1109846    294.96288 
     900   0.94383357    -106.7422    299.92102 
     910   0.94393677   -163.93616    300.88427 
     920   0.94407322   -96.104834    297.51728 
     930   0.94422603   -43.281341    296.05043 
     940   0.94438156   -111.78084    296.89359 
     950   0.94455529   -123.98463    293.29769 
     960   0.94475451   -209.76918    296.06813 
     970   0.94499695   -228.08217    294.59641 
     980    0.9452844   -194.85317    295.09016 
     990   0.94560646    -215.6241    292.78932 
    1000   0.94597159   -419.91975    299.45027 
    1010   0.94641819   -302.62599    298.02155 
    1020   0.94691942   -180.72487    299.27869 
    1030   0.94743076    56.460203    295.61626 
    1040   0.94789177    170.17268    292.30601 
    1050    0.9482822   -152.82467    303.50414 
    1060   0.94868184   -333.16903    309.06079 
    1070   0.94913984    -201.4145    304.88285 
    1080   0.94962173    2.8959516    300.49606 
    1090   0.95006885    143.36244    298.60333 
    1100   0.95044675    128.26085    297.81137 
    1110   0.95076184    78.778533    298.08738 
    1120   0.95103175    75.478925    294.46185 
    1130   0.95126521   -13.435349    298.42055 
    1140   0.95148206    37.081711     297.5064 
    1150    0.9516745    54.204547    296.37211 
    1160   0.95183942   -6.6158936    299.27127 
    1170   0.95199019    80.228939      292.437 
    1180   0.95211535   -4.1125611    295.10502 
    1190   0.95223012   -41.751303    297.01718 
    1200   0.95234732   -17.825646    296.43704 
    1210    0.9524597    118.17457    291.11322 
    1220   0.95253339    201.79805    290.42422 
    1230   0.95255136    26.257307    299.03918 
    1240   0.95255896   -106.32766    299.13614 
    1250   0.95259648   -159.80924    300.00793 
    1260   0.95267579   -144.67764    303.61955 
    1270   0.95278728    22.601804    302.25263 
    1280   0.95288722    151.69388    300.23633 
    1290   0.95294041    177.49389    302.47767 
    1300   0.95293821     207.0781    301.36326 
    1310   0.95288119    108.05338    301.61579 
    1320   0.95279065    160.65091    300.83576 
    1330   0.95266146    143.60958    306.15741 
    1340   0.95249403    208.92435     299.6813 
    1350   0.95228218    133.38059    294.58161 
    1360   0.95204493    52.133351    297.42022 
    1370    0.9517965    285.10947    289.96387 
    1380   0.95148742    268.61056     288.6166 
    1390   0.95112374   -26.863025    293.62368 
    1400   0.95078594   -290.27929    297.74727 
    1410   0.95054395    -350.0692    297.66818 
    1420    0.9504128   -266.12736    294.13906 
    1430    0.9503642   -141.19367    293.77905 
    1440   0.95035837   -41.791833    293.94235 
    1450   0.95036742   -10.028513    291.68986 
    1460   0.95038366   -126.72821    296.57666 
    1470   0.95043554   -276.49595    307.24433 
    1480   0.95055691    -234.8282    310.62677 
    1490   0.95074288   -216.83154    312.41383 
    1500   0.95097652    42.454887      301.749 
    1510   0.95118908    291.52912     294.9378 
    1520   0.95131198    313.32059     295.3825 
    1530   0.95134317    135.70589    296.36407 
    1540   0.95133496   -121.69919    300.91347 
    1550   0.95135356   -115.22281    298.99026 
    1560   0.95140261    30.783155     291.2127 
    1570   0.95144454    14.823797    294.24069 
    1580   0.95147941   -6.0673446    296.39202 
    1590   0.95150878    156.09939    290.96661 
    1600   0.95149514    188.20143    293.57947 
    1610   0.95142826    137.76673    295.17226 
    1620   0.95132542     66.94544    296.53012 
    1630   0.95120607    48.089007    297.85202 
    1640   0.95108335   -123.58881    298.94482 
    1650   0.95100281   -348.86085     301.3682 
    1660   0.95102534   -514.76018    303.50706 
    1670   0.95119182   -502.01088     304.5983 
    1680   0.95149099   -266.23726    300.35555 
    1690   0.95185506   -12.373986     298.6967 
    1700   0.95220809    223.57261    295.25782 
    1710   0.95248907    190.72632    299.72373 
    1720   0.95270638    6.3438411    310.42332 
    1730   0.95289991    248.00743    301.80591 
    1740   0.95302051    389.49437    297.27383 
    1750   0.95302734     353.4931    296.97973 
    1760   0.95293291    236.26325    299.97219 
    1770   0.95276929     211.8976    294.85327 
    1780   0.95255743   -39.472052    298.20724 
    1790   0.95235971   -148.61926    295.66487 
    1800   0.95221228   -131.16355    290.98153 
    1810   0.95210955   -137.24755    293.69045 
    1820   0.95204714   -30.580792    289.49217 
    1830   0.95200347   -126.90774    291.94707 
    1840   0.95199948   -315.52714    296.14849 
    1850   0.95208674   -485.57669    300.84468 
    1860   0.95230483   -375.41606    294.68928 
    1870   0.95263159    -381.0161    297.00982 
    1880   0.95305921   -427.85055    304.45411 
    1890   0.95359089    -230.6099    299.15465 
    1900   0.95417367   -25.146066    294.98408 
    1910   0.95474665    138.90232    289.20748 
    1920   0.95526306    242.90473    293.43203 
    1930   0.95568699    427.28704    298.92751 
    1940   0.95597353    543.47486    301.32142 
    1950   0.95609372    593.00124    299.10217 
    1960   0.95604335    416.52823    303.19677 
    1970   0.95587045     293.4155    298.65322 
    1980   0.95562671    -36.20831    302.44216 
    1990   0.95539878   -285.31362    308.19658 
    2000   0.95525604   -309.68062    307.31098 
Loop time of 11.3887 on 6 procs for 2000 steps with 3000 atoms

Performance: 15.173 ns/day, 1.582 hours/ns, 175.612 timesteps/s
99.8% CPU use with 6 MPI tasks x 1 OpenMP threads

MPI task timing breakdown:
Section |  min time  |  avg time  |  max time  |%varavg| %total
---------------------------------------------------------------
Pair    | 8.4996     | 9.2509     | 9.7755     |  16.5 | 81.23
Bond    | 0.0010056  | 0.0011544  | 0.0014327  |   0.4 |  0.01
Neigh   | 0.48967    | 0.49019    | 0.49078    |   0.1 |  4.30
Comm    | 0.46193    | 0.98528    | 1.7378     |  50.7 |  8.65
Output  | 0.0042081  | 0.0045282  | 0.0059001  |   0.9 |  0.04
Modify  | 0.62972    | 0.63225    | 0.63449    |   0.2 |  5.55
Other   |            | 0.02441    |            |       |  0.21

Nlocal:    500 ave 520 max 477 min
Histogram: 1 0 0 1 1 0 1 1 0 1
Nghost:    6807.17 ave 6834 max 6788 min
Histogram: 1 2 0 0 0 1 0 1 0 1
Neighs:    173130 ave 181229 max 168171 min
Histogram: 2 1 0 1 0 0 0 1 0 1

Total # of neighbors = 1038777
Ave neighs/atom = 346.259
Ave special neighs/atom = 2
Neighbor list builds = 109
Dangerous builds = 5
unfix stab_iso
unfix stab_constrain

reset_timestep 0
fix iso all npt temp ${Text} ${Text} $(100.0*dt) iso ${Pext} ${Pext} $(1000.0*dt)
fix iso all npt temp 298 ${Text} $(100.0*dt) iso ${Pext} ${Pext} $(1000.0*dt)
fix iso all npt temp 298 298 $(100.0*dt) iso ${Pext} ${Pext} $(1000.0*dt)
fix iso all npt temp 298 298 100 iso ${Pext} ${Pext} $(1000.0*dt)
fix iso all npt temp 298 298 100 iso 1 ${Pext} $(1000.0*dt)
fix iso all npt temp 298 298 100 iso 1 1 $(1000.0*dt)
fix iso all npt temp 298 298 100 iso 1 1 1000
#fix iso all nvt temp ${Text} ${Text} $(100.0*dt)
fix constrain all rattle 1.0e-5 100 0 b 1 a 1
  0 = # of size 2 clusters
  0 = # of size 3 clusters
  0 = # of size 4 clusters
  1000 = # of frozen angles
  find clusters CPU = 0.000245094 secs

thermo_style custom step density etotal press temp
thermo_modify flush yes
    # insures the output is dumped in the file and not buffered or something
thermo ${NdumpStats}
thermo 10
dump trj all atom ${NdumpFrames} wat.lammpstrj
dump trj all atom 1000 wat.lammpstrj

run ${Nrun}
run 500000
Per MPI rank memory allocation (min/avg/max) = 9.733 | 10.02 | 10.17 Mbytes
Step Density TotEng Press Temp 
       0   0.95525604   -10385.724   -286.68231    307.31098 
      10   0.95526503   -10385.903   -163.17002    299.61513 
      20   0.95528747   -10386.669   -206.80587    300.51173 
      30   0.95532456   -10387.565   -189.97204    300.27942 
      40   0.95537483   -10388.812   -14.342197     296.8379 
      50   0.95542638   -10389.996    155.11074    292.74929 
      60   0.95546919   -10390.619   -11.741883    297.77518 
      70    0.9555118   -10391.378   -105.39235    301.16333 
      80   0.95556122   -10392.243   -33.456204    297.76279 
      90   0.95561461   -10393.661   -156.99442    302.30382 
     100   0.95567933   -10395.595   -278.03175    303.81145 
     110   0.95576428   -10398.407   -311.25033    302.82769 
     120   0.95587227   -10402.634    -331.0556    307.79348 
     130   0.95600281   -10408.328   -115.91873    299.21049 
     140   0.95614479   -10415.192    -180.5147    299.77611 
     150   0.95629996   -10423.252    -259.4931    300.80985 
     160   0.95647441   -10432.514    -287.9369    300.32783 
     170   0.95666924   -10443.415   -203.85599    303.05993 
     180   0.95687745   -10454.829     109.0583      297.131 
     190   0.95707937   -10466.315    227.90703    297.66972 
     200   0.95726349   -10476.693    461.75792    292.35371 
     210   0.95741573   -10485.316    524.06311    287.70477 
     220   0.95753071   -10491.912    382.31979    289.37619 
     230   0.95761706     -10496.6    305.17916    287.51087 
     240   0.95768119   -10499.387     215.2314    289.86633 
     250   0.95772953   -10501.127    104.91074    294.41769 
     260   0.95776961   -10502.249    51.799219    293.95061 
     270   0.95780572   -10502.671    34.307406    292.28158 
     280    0.9578388   -10502.444    95.832194    291.70171 
     290   0.95786477    -10501.64    187.49603    291.63346 
     300   0.95787764   -10499.891    198.77565    288.43996 
     310   0.95787751   -10497.362   -1.5582837    293.30435 
     320   0.95787621   -10494.382   -32.718713    291.95782 
     330   0.95787738   -10490.956   -38.841992    292.20425 
     340   0.95788118   -10487.196   -27.608311    295.01082 
     350   0.95788699   -10483.128    12.141408    296.79019 
     360   0.95789203   -10479.015    54.363762    295.67963 
     370   0.95789343   -10474.925    82.376892    296.21828 
     380   0.95788865   -10470.878    128.75189    298.28841 
     390   0.95787329   -10466.842    254.50812     295.4048 
     400   0.95784076   -10462.984    147.47863    299.09017 
     410   0.95779662   -10459.176    71.761767    300.59826 
     420   0.95774635   -10455.915    86.516616    301.22734 
     430   0.95768915   -10453.133    155.46741    299.05237 
     440   0.95762074   -10450.473    213.20605    295.27579 
     450   0.95753739   -10447.823    153.18843    297.33113 
     460   0.95744214   -10444.933    81.445087    298.13851 
     470   0.95734062   -10442.274   -4.5028558    301.17736 
     480    0.9572379   -10439.806    25.949981    301.59838 
     490   0.95713287   -10438.025    68.820967    298.07403 
     500   0.95702311   -10436.252    12.290058    297.97439 
     510   0.95691246   -10434.465   -94.986887    299.32827 
     520   0.95680627   -10432.804    61.576123    298.74013 
     530    0.9566941   -10431.204     344.5563    295.54545 
     540   0.95655764   -10429.501    358.13975    297.05004 
     550   0.95639501   -10427.553    172.27387    299.56293 
     560   0.95621776   -10425.301    159.54348    293.76469 
     570   0.95602796   -10422.459    192.48606    292.23001 
     580   0.95582302   -10418.661    184.20333    293.22539 
     590   0.95560377    -10413.51    124.80491    296.52572 
     600   0.95537467   -10407.304   -16.408118    301.53676 
     610   0.95514587   -10400.177    -237.8787    308.23347 
     620   0.95493251   -10392.743   -362.48958     308.5741 
     630   0.95474412   -10384.979   -375.55933    305.80555 
     640   0.95458252   -10376.836   -404.50123    304.16398 
     650   0.95445036   -10367.776   -488.09652    304.57173 
     660   0.95435339   -10358.156   -561.81323    308.18962 
     670    0.9542963   -10348.339   -499.81906    308.94136 
     680    0.9542749   -10338.898   -269.21284    303.97606 
     690   0.95427382    -10329.69   -49.739155    299.15246 
     700   0.95427875   -10320.674   -163.47672    308.70343 
     710   0.95429439    -10312.31   -168.23508    312.18329 
     720    0.9543206   -10305.571    144.06232    307.89672 
     730   0.95433666   -10300.202    479.30028    303.49248 
     740   0.95431984   -10296.068    480.49232    306.79816 
     750   0.95426705   -10292.889    436.75486    308.93756 
     760    0.9541814   -10291.021    402.49659    309.46997 
     770   0.95406633   -10290.705     245.6184    312.74086 
     780   0.95393098   -10292.038    259.89839    311.02541 
     790   0.95377564    -10295.17    236.93592    311.63612 
     800   0.95360149   -10300.062    211.69289    308.71154 
     810   0.95340977   -10306.177    295.82918    304.29054 
     820   0.95319478   -10313.411    365.51713    306.18652 
     830   0.95295094   -10321.588    406.98194    303.67239 
     840   0.95267564   -10330.223    355.05156    301.02766 
     850   0.95237252   -10338.706    203.51021    300.35287 
     860   0.95205196   -10346.951    1.0729776    302.06828 
     870   0.95172737   -10354.713   -93.485551    302.19836 
     880   0.95140662   -10361.934   -132.94701    301.92131 
     890   0.95109201   -10368.125   -59.579734    296.99043 
     900   0.95078035   -10373.245   -166.43106    298.97071 
     910   0.95047883     -10377.3   -410.96062     301.3973 
     920   0.95020501   -10380.659   -636.83703    298.94699 
     930   0.94997634   -10383.443   -857.14065    297.30208 
     940   0.94980931   -10385.467   -1047.5603     296.5747 
     950   0.94971778   -10387.237     -1164.59    300.96139 
     960   0.94970947   -10388.837   -1012.1612    297.13714 
     970   0.94977678   -10390.268   -955.13099    299.42249 
     980    0.9499156   -10391.815   -954.69501    299.69619 
     990    0.9501266   -10393.318   -915.08803    296.03744 
    1000   0.95040847   -10394.561   -953.14155    298.83964 
    1010   0.95076454    -10396.04   -1041.1219    301.49447 
    1020   0.95120127   -10397.975   -1064.1527    305.69428 
    1030   0.95171986    -10400.76   -819.33086    305.95808 
    1040   0.95230459   -10404.359   -463.83221    299.82836 
    1050   0.95293095   -10407.961    -168.1734    296.10909 
    1060   0.95357741   -10411.439   -24.870625    298.87283 
    1070   0.95423335   -10414.776   -36.106053    297.01457 
    1080   0.95490118   -10418.335   -333.17006    300.84478 
    1090   0.95560077   -10422.576   -637.03278    305.73265 
    1100   0.95635264   -10427.747   -658.42379    308.97329 
    1110   0.95715876   -10434.418   -403.17556    308.24396 
    1120   0.95800082    -10441.92    24.558905    297.57336 
    1130    0.9588514   -10449.338    87.684183    298.56593 
    1140   0.95970216    -10456.79    88.506868    302.74508 
    1150   0.96055086   -10464.169    357.80383    297.83225 
    1160   0.96137841   -10470.873    731.37531    291.07994 
    1170   0.96215913   -10476.497    805.04939    295.71654 
    1180   0.96288441   -10481.462    812.65617    298.57116 
    1190    0.9635525    -10485.93    939.21521    295.97423 
    1200   0.96415399   -10490.031    1134.4513    293.53137 
    1210   0.96467581    -10492.94    1123.4439    288.65398 
    1220   0.96511904   -10494.799    799.81129    292.78959 
    1230   0.96550361   -10495.867    634.61908    295.38967 
    1240   0.96584283   -10496.688    497.44508    302.45976 
    1250   0.96614568   -10498.109    496.02731    303.57755 
    1260   0.96641077    -10499.58    825.54057     289.5929 
    1270   0.96661861   -10500.503    826.61666    292.11504 
    1280   0.96676608   -10500.629     760.0372    295.80959 
    1290   0.96685699   -10500.517      803.826    297.02242 
    1300   0.96689037   -10500.369    670.86989    298.81287 
    1310     0.966874   -10500.334    550.84182    300.73077 
    1320   0.96681516   -10500.476    673.20037    296.33735 
    1330   0.96670688   -10500.535    752.10526    297.68171 
    1340   0.96654234   -10500.603    854.19671    294.65764 
    1350   0.96631537   -10500.138    812.86826    293.71134 
    1360   0.96602932   -10499.778    443.28315    306.90606 
    1370   0.96570675   -10499.741    313.42593    303.57209 
    1380   0.96535974   -10500.539     267.7353    301.36681 
    1390   0.96499082   -10502.056     294.4503    302.92352 
    1400   0.96459782   -10504.055    456.87387    294.16983 
    1410   0.96417107   -10506.008    455.24945    294.21486 
    1420   0.96370887    -10507.74    417.40433    296.01101 
    1430    0.9632145   -10509.845    240.99426    302.90711 
    1440   0.96270002   -10513.138    28.488381      302.927 
    1450    0.9621811   -10517.829   -146.42342    299.85775 
    1460   0.96167151   -10524.208   -402.81169    302.91564 
    1470   0.96118885   -10532.633   -574.43662    304.39726 
    1480   0.96074504   -10543.471    -508.0909    302.27207 
    1490   0.96033713   -10555.555   -435.19107    294.52975 
    1500   0.95996101   -10567.672   -487.65958    292.39291 
    1510   0.95961865   -10578.749   -430.13867    287.98145 
    1520   0.95930737   -10587.755   -435.90698    284.93518 
    1530   0.95902779   -10594.495   -542.81172    285.46334 
    1540   0.95878666   -10598.995    -583.4845    280.25307 
    1550   0.95858845   -10601.239   -704.88225    281.00108 
    1560   0.95844117   -10601.718   -813.96947    282.76552 
    1570   0.95835308   -10600.298   -866.06741    282.54658 
    1580   0.95832855   -10597.413   -937.24975    288.54659 
    1590   0.95837181    -10593.49   -882.59749    287.79456 
    1600   0.95848185   -10588.452   -938.11264     285.9037 
    1610   0.95866232   -10582.454   -1039.2406    290.79376 
    1620   0.95891883   -10575.487   -888.50869     289.8428 
    1630   0.95924188   -10567.958   -562.79568    286.12441 
    1640   0.95960889   -10559.749   -242.63883    282.60678 
    1650   0.95999805   -10550.735   -147.76958    284.99752 
    1660   0.96040079   -10541.134   -157.15362    291.50738 
    1670    0.9608175   -10531.988   -117.03961     290.9862 
    1680   0.96124676   -10523.496    -185.1732    293.33468 
    1690   0.96169191   -10515.903   -176.09681    297.30735 
    1700   0.96215063   -10509.089    133.42687    291.31422 
    1710   0.96260466   -10503.016    201.05228    294.26596 
    1720   0.96304609   -10497.277    290.97652    298.31286 
    1730   0.96346848   -10492.138    487.47289    290.77573 
    1740   0.96385872   -10486.896    584.95027    289.80133 
    1750   0.96420851   -10481.401    622.11921    295.83356 
    1760   0.96451379   -10475.995    716.64636    296.77266 
    1770   0.96476993   -10470.926    557.96494    303.09177 
    1780   0.96498473   -10466.413    563.58266    300.97534 
    1790   0.96515996   -10462.771    542.03348    302.15271 
    1800   0.96529694   -10459.904    436.70807    305.65922 
    1810   0.96540114   -10457.721    531.01743    300.39429 
    1820   0.96546688   -10456.109    653.89463     301.0531 
    1830   0.96548417   -10454.953    810.24101    301.72282 
    1840   0.96544188   -10454.181    906.26358    299.54037 
    1850   0.96533247   -10453.482    952.78035    296.44234 
    1860   0.96515329   -10452.884    791.47333    299.29669 
    1870   0.96491455   -10452.372    576.15147     297.7988 
    1880   0.96463121    -10451.87    368.88618    301.31376 
    1890   0.96431752   -10451.633    215.59646     305.5036 
    1900   0.96398388   -10452.435     198.6174    308.78385 
    1910   0.96363093   -10454.343    373.61581    302.01763 
    1920   0.96324915   -10457.051    326.73068    302.42097 
    1930   0.96283977   -10460.374    205.34286    303.67789 
    1940   0.96241006   -10464.524    289.89401    297.76914 
    1950   0.96195548    -10469.07    328.88552    297.25502 
    1960   0.96147287   -10473.663    280.32562    294.51683 
    1970    0.9609661   -10478.177    104.81356    293.70946 
    1980    0.9604475   -10482.458   -164.34737     298.4542 
    1990   0.95993531   -10487.116   -344.66906     297.1842 
    2000   0.95944338   -10491.778   -414.32536    297.14319 
    2010   0.95897641   -10496.678   -302.44402     294.8682 
    2020   0.95852777   -10501.557   -199.82952    293.71317 
    2030   0.95809086   -10506.344   -305.01006    298.47864 
    2040   0.95767191   -10511.185    -359.4038    294.54365 
    2050    0.9572746   -10516.071   -266.70901    290.01686 
    2060   0.95689314   -10520.265   -188.60046    287.30899 
    2070   0.95652323   -10523.522   -311.32759    287.76051 
    2080   0.95617255   -10525.788   -430.41819    287.16887 
    2090   0.95585064   -10526.993   -575.54928    290.29256 
    2100   0.95556623   -10527.165    -488.8862     288.4087 
    2110   0.95531365   -10526.173     -185.177    280.43398 
    2120   0.95507443   -10523.268   -224.92707    284.19949 
    2130   0.95484945   -10518.154   -387.72646    286.76963 
    2140   0.95465102   -10510.703   -548.25318    287.16788 
    2150   0.95449154   -10500.917   -735.32466    292.86163 
    2160   0.95438348   -10489.358   -741.13997    292.86695 
    2170   0.95432952   -10476.752   -770.38589    294.16422 
    2180    0.9543323   -10464.039   -789.63173    296.04717 
    2190   0.95439255   -10452.151   -614.38146    291.71407 
    2200   0.95450031   -10441.719   -570.16305    294.63964 
    2210   0.95465268   -10432.652   -694.61631    304.08753 
    2220   0.95485714   -10425.573   -640.88935    300.64411 
    2230   0.95511244   -10420.754   -567.80014    299.66644 
    2240   0.95541337   -10416.891   -474.74262    299.77594 
    2250   0.95575398   -10413.917   -361.70429    302.04659 
    2260   0.95612608   -10411.758   -192.97546    302.55579 
    2270   0.95651959   -10410.513   -204.00789    306.06459 
    2280   0.95693433   -10410.078   -192.87054    301.59239 
    2290   0.95736884   -10410.206   -31.321417    300.61461 
    2300   0.95781153   -10410.583    242.12958    297.50738 
    2310   0.95824329   -10410.821    469.04036    297.31872 
    2320   0.95864813   -10411.135    457.61361    301.03887 
    2330   0.95902631   -10411.675    318.85392    299.13313 
    2340   0.95938762   -10412.512    118.13077    299.33774 
    2350   0.95974517    -10413.36    29.087343    297.48416 
    2360   0.96010678   -10414.196    -80.16524    298.34002 
    2370   0.96048023   -10415.178   -181.80381    304.31189 
    2380   0.96087123   -10416.785   -14.516176    301.38673 
    2390   0.96127051   -10418.975    97.321117    299.05157 
    2400   0.96166995   -10421.516    79.692952    301.66005 
    2410   0.96206869   -10424.513    231.70027    301.07424 
    2420   0.96245621   -10428.016    445.74528    300.17434 
    2430   0.96281779   -10431.889     556.0903    299.07779 
    2440   0.96314455   -10436.399    598.79624     302.0708 
    2450   0.96343135   -10441.373    727.81262    299.95546 
    2460   0.96366998   -10446.964    682.76856    304.20969 
    2470     0.963861   -10453.574    708.20596    305.20825 
    2480   0.96400255   -10461.131    826.24731    297.73072 
    2490   0.96408633   -10468.718    799.03634    294.83377 
    2500   0.96411358   -10476.139    587.14817    297.53425 
    2510   0.96409617   -10483.159    553.63714    296.26046 
    2520   0.96403761   -10489.813    503.30036     296.9939 
    2530   0.96394088   -10496.273    377.80585    300.59997 
    2540   0.96381429   -10502.456    244.38306    297.30874 
    2550   0.96366795   -10508.089    65.190731    295.45109 
    2560   0.96351344   -10512.983    -2.454862    295.69523 
    2570   0.96335597   -10517.563   -24.085325    298.15931 
    2580   0.96319648   -10521.647    50.176856    295.10965 
    2590   0.96302955   -10524.699    262.34589    286.27216 
    2600   0.96284181    -10526.52    199.16744    289.50901 
    2610   0.96263615   -10527.181   -62.319723    293.71572 
    2620   0.96243056    -10527.17   -215.29614    293.77284 
    2630   0.96223627   -10526.706    -209.6683    292.82586 
    2640   0.96205428   -10525.759    -203.3855    293.83984 
    2650   0.96188289   -10524.377   -119.55202    294.75412 
    2660   0.96171727   -10522.739   -81.013705    294.35516 
    2670   0.96155416   -10520.832   -21.580263    292.55732 
    2680     0.961389   -10518.238    82.313132    290.45107 
    2690   0.96121576   -10515.265   -14.287426    297.58579 
    2700    0.9610387   -10512.222    10.103844    297.85201 
    2710   0.96085722   -10509.354    97.453777    296.83475 
    2720   0.96066393   -10506.366    295.35539    290.08229 
    2730   0.96044738   -10503.124    157.11936    292.91206 
    2740    0.9602145   -10499.166   -59.558195    292.45729 
    2750   0.95998168   -10495.171   -339.95393    294.45181 
    2760   0.95976894   -10491.146   -542.72796    297.26951 
    2770   0.95959059   -10487.303   -519.33954    299.09057 
    2780   0.95944683   -10484.105   -458.02516    304.44769 
    2790   0.95933236   -10481.584   -224.73713    300.81027 
    2800   0.95923391   -10480.051   -165.15224    303.55088 
    2810    0.9591444   -10479.153    12.405818    297.16491 
    2820   0.95905303   -10478.275    140.95697    290.72024 
    2830   0.95895098   -10477.023    17.696215    296.98586 
    2840   0.95884412   -10475.621    35.510747    296.11687 
    2850   0.95873309   -10474.277   -3.8820627    298.21686 
    2860   0.95861991   -10473.091   -72.941706    298.47324 
    2870   0.95850913   -10472.054   -40.046829    293.12954 
    2880   0.95840001   -10470.814   -119.90189    294.55648 
    2890   0.95829802   -10469.428    -294.6717    297.28873 
    2900   0.95821524   -10467.914     -425.835    300.62573 
    2910   0.95816214   -10466.946   -495.06505    304.24335 
    2920   0.95814347   -10466.695   -357.88991    302.69325 
    2930   0.95814955   -10466.719    19.872423    289.97887 
    2940   0.95815727   -10466.339    21.352162    294.04082 
    2950    0.9581636   -10465.404   -117.34356     300.5742 
    2960   0.95817799   -10464.735   -178.19656    302.63767 
    2970   0.95820497   -10464.616   -89.119284    300.24007 
    2980   0.95823978   -10465.013   -61.481515    301.24699 
    2990   0.95827942   -10465.661    9.2090471    297.52067 
    3000    0.9583195   -10466.149     67.98954    294.47252 
    3010   0.95835631   -10466.182   -7.5799919    294.37237 
    3020    0.9583947   -10465.877   -101.84334    294.51249 
    3030   0.95844237   -10465.225   -290.02813    301.78564 
    3040    0.9585117   -10464.778   -338.03541    297.61622 
    3050   0.95860747   -10464.095   -252.83094    285.46064 
    3060    0.9587263   -10462.392   -420.24858    288.62711 
    3070   0.95887859   -10459.284    -619.9552     294.0087 
    3080   0.95907892   -10455.485   -717.84357      297.706 
    3090    0.9593365   -10451.487   -771.47147    301.70122 
    3100   0.95965503   -10447.222   -595.24546    298.49187 
    3110   0.96002463   -10443.042   -422.68339    299.24153 
    3120   0.96043259   -10438.113   -233.68861    295.52069 
    3130   0.96086703   -10432.502   -158.23174    297.14107 
    3140   0.96132092   -10425.975    -31.36878    297.42619 
    3150   0.96178639   -10418.449    10.827399    299.66514 
    3160   0.96225978   -10410.125    15.202225    305.40212 
    3170   0.96273902    -10401.52    216.54803    305.82841 
    3180   0.96321069   -10393.172    448.38425    306.61845 
    3190   0.96365749   -10385.198     630.5274    308.27939 
    3200   0.96406377   -10377.536      937.708    302.99488 
    3210   0.96440823    -10370.21    1104.8837    300.00771 
    3220   0.96467837   -10362.983    999.53228    306.09393 
    3230   0.96487815   -10356.104    944.42308    304.97794 
    3240   0.96501088   -10349.944    929.31559    303.16568 
    3250   0.96507658   -10344.109    908.78185    303.00256 
    3260   0.96507633   -10338.736    803.94167    307.25242 
    3270   0.96501651   -10334.238    642.28849    314.08545 
    3280   0.96490721   -10331.364    594.86384    314.99455 
    3290   0.96475195   -10330.414    663.37945    309.08179 
    3300   0.96454661   -10331.238    558.01804    311.29828 
    3310   0.96429621   -10333.825    457.32139    314.52371 
    3320   0.96400783   -10338.898     412.3773    315.26072 
    3330    0.9636839   -10347.131    464.00656    312.43434 
    3340   0.96332129    -10358.72     443.2558    310.63362 
    3350   0.96292156   -10373.706    267.33741    308.55107 
    3360   0.96249606   -10390.399    170.15198    302.15593 
    3370   0.96205266   -10406.546     99.47619    298.55833 
    3380    0.9615963   -10420.321    26.367162    298.56111 
    3390   0.96113184    -10430.62    9.6215367    295.55161 
    3400   0.96066243   -10437.753   -160.80048    297.09064 
    3410   0.96019964   -10443.132   -436.46159     303.5155 
    3420   0.95976209   -10447.665   -536.29875    304.57323 
    3430   0.95935799   -10452.069   -468.16166    300.93788 
    3440   0.95898549   -10455.928   -505.79505    296.92982 
    3450   0.95864708   -10459.291    -640.1171    298.49051 
    3460   0.95835127   -10462.332   -619.06368     298.1844 
    3470   0.95809725   -10465.216   -471.47431    295.94662 
    3480   0.95787565   -10467.856   -391.45364     299.1148 
    3490   0.95768026   -10470.522   -319.20221    301.56328 
    3500   0.95750474   -10473.088   -53.733599    289.78121 
    3510   0.95733387   -10475.256   -49.977193    290.31302 
    3520   0.95716502   -10476.446   -88.606821    292.54964 
    3530    0.9570004    -10476.71    -43.33316    289.55912 
    3540   0.95683801   -10476.186   -114.93978    290.21578 
    3550   0.95668299   -10474.827    -289.3962     294.1427 
    3560   0.95654804   -10472.778   -525.55067    298.55413 
    3570   0.95645098   -10470.924   -788.00162    305.60532 
    3580   0.95640947   -10469.581   -793.03374    302.30824 
    3590    0.9564267   -10468.766   -728.87148     297.5225 
    3600   0.95649885   -10468.235   -729.05658    303.11907 
    3610   0.95662373   -10467.989   -474.71327    299.05479 
    3620   0.95678506   -10467.868   -183.95988    294.26618 
    3630   0.95696343   -10467.665   -174.13504    300.47253 
    3640   0.95715597    -10467.57   -163.51585    298.78704 
    3650   0.95736277   -10467.559   -150.14052    295.60602 
    3660   0.95758351   -10467.195   -205.27602    295.28878 
    3670   0.95782212   -10466.644   -283.14784    296.02895 
    3680   0.95808502    -10465.98   -457.04152    305.99657 
    3690   0.95838184    -10465.73   -312.79237    303.14086 
    3700   0.95870561   -10466.363    -155.7886    300.36515 
    3710   0.95904359   -10467.001    79.912275    291.91266 
    3720   0.95938037   -10467.322    162.05152    292.38402 
    3730   0.95970821   -10466.922    221.07842    294.25215 
    3740   0.96002262   -10465.748    296.56873    293.00232 
    3750   0.96031929   -10464.111    179.59852    298.06897 
    3760   0.96060475   -10462.335    116.40963    301.16656 
    3770   0.96088378   -10460.519    155.04593    298.01221 
    3780   0.96115449   -10458.512     157.7736    295.20709 
    3790   0.96141675   -10456.165    59.223757    301.73548 
    3800   0.96167517    -10454.07    143.27649    303.80285 
    3810   0.96192448   -10452.303    353.82563    299.04595 
    3820   0.96215263    -10450.89    239.29003    306.64261 
    3830   0.96236273   -10450.081    367.59152    303.34858 
    3840   0.96254794     -10449.8    547.98606    295.36395 
    3850   0.96269512   -10449.248    592.23939    293.44695 
    3860   0.96280072    -10448.18    499.66274    296.31665 
    3870    0.9628694   -10446.775    492.88555    298.59395 
    3880   0.96290176   -10445.057    576.60227    295.90843 
    3890    0.9628928   -10443.049     507.9571    299.06338 
    3900   0.96284617   -10440.841    406.74435    297.50391 
    3910   0.96276937   -10438.293     313.1323    293.38531 
    3920   0.96266948   -10435.229    140.35751    299.20212 
    3930   0.96255764   -10431.689    68.561145     300.4733 
    3940    0.9624394   -10428.071    51.999301    301.39932 
    3950   0.96231546   -10424.519    112.86686    300.28593 
    3960    0.9621821   -10420.971    180.56085    299.48767 
    3970   0.96203453   -10417.223    268.90787    298.22218 
    3980   0.96186476   -10413.126    529.86714    292.86066 
    3990   0.96165545   -10408.619    610.17299     299.9061 
    4000   0.96139851   -10403.685    612.99655    304.99518 
    4010   0.96109411   -10399.024    632.95904    300.58935 
    4020   0.96074157   -10394.513    571.88518     299.0158 
    4030   0.96034395   -10389.815    472.24614    305.13513 
    4040   0.95990719   -10385.577    397.44997    305.59007 
    4050   0.95943922   -10382.206    89.862849    308.48103 
    4060   0.95896071   -10379.696   -208.92802     308.1509 
    4070   0.95849344     -10378.5   -372.31264    308.05987 
    4080   0.95804934   -10378.128   -381.04023    305.90817 
    4090   0.95763153   -10378.888   -531.51027    310.63231 
    4100    0.9572486   -10381.353   -542.90178     312.1219 
    4110   0.95690248   -10386.067   -471.62076    309.00288 
    4120   0.95658803   -10392.463   -313.02223    301.21673 
    4130   0.95629591   -10399.617    -298.4793    299.07921 
    4140   0.95602506   -10407.542   -477.35822    301.15756 
    4150   0.95578808   -10416.241   -685.21175    305.15176 
    4160   0.95559838   -10426.271   -659.35236     305.4801 
    4170   0.95545483   -10436.481   -437.57465    295.42394 
    4180   0.95534383   -10445.924   -384.26606    294.81004 
    4190   0.95526008   -10454.266   -325.66229    294.79599 
    4200   0.95519963    -10461.03    -217.1755    289.06782 
    4210   0.95515645    -10466.14   -304.21141    291.11892 
    4220   0.95513562   -10469.957   -419.17586    291.46123 
    4230   0.95514509   -10472.277   -436.20227    287.67898 
    4240   0.95518793    -10473.27   -541.84896    290.05499 
    4250   0.95527051   -10473.448   -604.65503     296.0421 
    4260   0.95539689   -10473.261   -455.09861    292.67362 
    4270    0.9555585   -10472.764   -367.48337    295.81025 
    4280   0.95574762   -10471.681   -243.20675    294.10304 
    4290   0.95595791   -10470.385   -331.70203    297.53674 
    4300   0.95619476   -10469.382   -529.52414    305.67991 
    4310   0.95647022   -10468.855   -410.13896    298.02959 
    4320   0.95677957   -10468.726   -330.72948    295.21968 
    4330   0.95711572   -10468.092   -267.38235    295.88954 
    4340   0.95747585   -10467.727   -395.15127     304.8661 
    4350     0.957866   -10467.691   -296.31269     301.8754 
    4360   0.95828128   -10468.181   -134.54969    299.62719 
    4370   0.95870995   -10468.905    14.249662    298.81346 
    4380   0.95914086   -10469.437    180.36985    296.52288 
    4390   0.95956222   -10470.037    201.62414    302.50338 
    4400    0.9599716   -10471.259    175.03896     305.8256 
    4410   0.96037013   -10473.346    260.89568    301.47363 
    4420   0.96075335   -10476.053    217.38326    301.76874 
    4430   0.96112463    -10479.64   -58.862498     309.7028 
    4440    0.9615008   -10484.606   -66.270236    304.75162 
    4450   0.96188439   -10490.788    63.286431     297.3435 
    4460   0.96226667   -10497.779    108.93664    301.24309 
    4470   0.96264269   -10505.553    203.72078    300.35009 
    4480   0.96300649   -10514.179    244.57299    297.44562 
    4490   0.96335578   -10522.963    159.28239    292.47401 
    4500   0.96369657   -10531.285    -3.214148    291.34878 
    4510   0.96404005   -10539.182   -185.66672    293.74974 
    4520   0.96439811   -10546.457   -192.55237    290.85626 
    4530   0.96477284   -10552.831   -175.06085    290.92323 
    4540     0.965163   -10557.958   -152.91697    290.41224 
    4550   0.96556763   -10561.991    -203.4719    289.45554 
    4560    0.9659897   -10564.877   -216.01975    293.38754 
    4570   0.96642872   -10567.062   -34.104673    294.35282 
    4580   0.96687248   -10568.374    202.03822    290.96788 
    4590   0.96730467   -10569.321    285.86501    296.45944 
    4600   0.96771718   -10569.477    459.23184    292.59803 
    4610   0.96809949   -10569.157    513.31174     290.8762 
    4620   0.96844612    -10568.19    541.65596    294.14549 
    4630   0.96875389   -10566.692    663.88004    291.02614 
    4640   0.96901579   -10564.859     608.3008    293.18972 
    4650     0.969234   -10562.632    527.58092    293.24711 
    4660   0.96941493    -10560.48    394.67182     298.4883 
    4670   0.96956597   -10558.639    431.92256    298.06581 
    4680   0.96968682    -10557.32    395.03913    299.53665 
    4690   0.96977915   -10556.341    283.76258    301.75598 
    4700   0.96985027   -10555.784    265.08686    299.80221 
    4710   0.96990305   -10555.814    175.64844    300.96076 
    4720   0.96994349   -10556.025    31.838284     302.4683 
    4730   0.96998084   -10556.673    12.830825    299.65455 
    4740   0.97001664   -10557.377    128.51502    299.11417 
    4750   0.97004137   -10558.093    492.35491    290.79187 
    4760   0.97003084   -10558.016     748.5915    286.64602 
    4770   0.96996769   -10557.023    612.64492    293.02688 
    4780   0.96985787   -10555.139    551.21788     290.1326 
    4790   0.96970834   -10552.744    292.58383    296.97133 
    4800    0.9695356   -10550.083    53.062717    301.55388 
    4810   0.96935697   -10547.686   -14.544082    298.01995 
    4820   0.96917841   -10545.502   -24.123024    294.78206 
    4830   0.96900073   -10542.971   -26.314745    292.29164 
    4840   0.96882441   -10539.774   -89.452769     294.9898 
    4850    0.9686535   -10536.268   -149.37724    300.88042 
    4860   0.96849186   -10533.054    -113.7012    304.42975 
    4870   0.96833648   -10530.402    83.401437    300.56594 
    4880   0.96817594   -10527.934    84.774492    294.18812 
    4890   0.96800979   -10525.283   -125.49994    299.43222 
    4900   0.96784992   -10522.585    -114.8817    301.18192 
    4910    0.9676965   -10520.095    51.689178    298.83259 
    4920   0.96753775   -10517.822    286.93027    296.63295 
    4930   0.96735654   -10515.132      531.635    291.15662 
    4940   0.96713693   -10511.508    468.49238    289.99256 
    4950   0.96688146   -10506.614    337.98285    289.47153 
    4960   0.96659926   -10500.373    200.83402    293.84389 
    4970   0.96630043   -10493.052   -11.655179    302.65277 
    4980   0.96599967   -10485.509   -159.18533    303.71152 
    4990    0.9657087   -10478.658   -279.37706    304.19378 
    5000   0.96543666    -10472.11   -399.64541    305.15144 
    5010   0.96519101   -10466.269   -348.08885    301.00291 
    5020   0.96496935   -10460.891   -278.45268    301.99278 
    5030   0.96476761   -10455.897   -289.11865    301.74391 
    5040   0.96458492   -10451.145   -158.37758     299.5407 
    5050   0.96441159    -10446.64    115.35305    297.85018 
    5060   0.96422866   -10441.919    316.81089    294.26276 
    5070   0.96402337   -10436.939    180.88465    296.70511 
    5080   0.96380335   -10431.382   -30.551671    299.33893 
    5090   0.96358451   -10425.995   -301.23355    307.06029 
    5100   0.96338346   -10420.918   -221.36588    304.74609 
    5110   0.96319777   -10416.882   -152.74118    306.14719 
    5120   0.96302176   -10413.634    -85.83407     306.5145 
    5130   0.96284981   -10410.995     94.20034    303.70595 
    5140   0.96267072   -10409.243    84.720322    307.23806 
    5150    0.9624837   -10408.509    70.574796    304.65459 
    5160   0.96228991   -10408.358    73.650137    301.94877 
    5170   0.96208917   -10408.492     77.69931    295.25204 
    5180   0.96188361   -10408.703   -213.83676    300.46149 
    5190   0.96169091   -10409.063   -378.71759    300.45021 
    5200   0.96152512   -10409.805   -503.47314    298.53237 
    5210   0.96139418   -10411.055   -472.44893     298.6215 
    5220   0.96129584   -10413.002   -278.16106    298.23993 
    5230   0.96121735   -10415.336   -100.61382     295.9061 
    5240   0.96114635   -10417.852    12.036922    292.00193 
    5250   0.96107543   -10420.476    -100.6862    296.43776 
    5260   0.96101143   -10423.175   -275.85827    301.60928 
    5270   0.96096484   -10426.317   -119.74175    297.50226 
    5280    0.9609265   -10429.972    146.95472    292.74905 
    5290   0.96087785   -10433.125    280.73466    290.00021 
    5300   0.96081088   -10435.902   -29.327424     302.9525 
    5310   0.96074343     -10439.2   -146.76366    304.63612 
    5320   0.96068511   -10443.215    -52.67145    300.29349 
    5330   0.96062998   -10447.713    57.997853    297.59545 
    5340   0.96057111   -10452.358    21.927545    297.09268 
    5350   0.96050999   -10457.195   -48.309604    300.45421 
    5360   0.96045051   -10462.186    92.145674    294.62148 
    5370   0.96038371   -10466.571    287.99546    287.10343 
    5380   0.96029666   -10469.798    243.18833    285.54013 
    5390   0.96019272   -10471.897   -88.970442    292.65567 
    5400    0.9600928   -10473.328   -280.30939    296.65042 
    5410   0.96001074   -10474.531   -206.63779      293.726 
    5420   0.95994407   -10475.353   -231.11071     295.9822 
    5430   0.95989376   -10475.626   -224.17943    291.89211 
    5440   0.95986049   -10475.424   -251.58099    290.62963 
    5450   0.95984558    -10474.44   -327.32293    296.52885 
    5460   0.95985443   -10473.058   -389.59025    301.91162 
    5470   0.95989131   -10472.066   -313.30681    301.22368 
    5480   0.95995169    -10471.33   -196.31399    302.08761 
    5490   0.96002675   -10471.294   -66.392655    303.12026 
    5500    0.9601066    -10471.53    140.66654    295.36703 
    5510   0.96017814   -10471.916     242.6635     297.5175 
    5520   0.96023257   -10471.968    289.08745    298.82756 
    5530   0.96026736   -10472.437    145.78014    305.50951 
    5540   0.96029039   -10473.543    123.83483      303.784 
    5550   0.96030492   -10475.448     138.0843    299.63011 
    5560   0.96030939    -10477.97    186.92154    297.89582 
    5570   0.96029994   -10480.575    289.23284    293.38495 
    5580   0.96026982   -10483.166    250.60731    296.82014 
    5590   0.96021968   -10485.617    299.36909    297.60159 
    5600   0.96014556   -10488.097    485.52137    290.19369 
    5610    0.9600368   -10489.994    373.19656    293.76261 
    5620   0.95989863   -10491.727    228.78395    300.08943 
    5630   0.95974125    -10493.37    192.59353    295.73541 
    5640   0.95956864    -10495.51    45.873027    301.88073 
    5650    0.9593882   -10497.786    173.17959    293.52329 
    5660   0.95919414   -10499.819    182.16404    291.63543 
    5670   0.95898517   -10501.712   -48.735665    299.94683 
    5680   0.95877639   -10503.594   -239.54898    298.07749 
    5690    0.9585838   -10506.184   -509.04907    302.03277 
    5700   0.95842407   -10509.246   -440.25959    296.73598 
    5710   0.95829498   -10512.551   -291.90961    290.25929 
    5720   0.95818647   -10515.217   -264.80345    288.46066 
    5730   0.95809712   -10517.074   -392.82632    288.65863 
    5740   0.95803634   -10518.053   -606.26442    292.72854 
    5750    0.9580184   -10518.374   -622.46312    290.86875 
    5760   0.95804684   -10517.949   -618.93621    293.08719 
    5770   0.95812064   -10516.752   -503.50155    291.50082 
    5780   0.95823293   -10514.751   -400.70049    293.11477 
    5790   0.95837584   -10511.916   -277.97548    295.30465 
    5800   0.95854124   -10508.301   -154.31708    290.22911 
    5810   0.95872214   -10503.541   -239.01668    293.04239 
    5820   0.95892234   -10497.481   -232.56588    293.03117 
    5830   0.95914353   -10490.703   -304.62742    300.04864 
    5840   0.95939008   -10483.229   -345.85705    304.30447 
    5850    0.9596649   -10476.194   -217.25062     300.7468 
    5860   0.95995937   -10469.536   -9.9714381    300.28593 
    5870   0.96025817   -10463.016    279.91157    297.64881 
    5880   0.96054102   -10456.381    505.94321     297.0115 
    5890   0.96079009   -10449.692    763.57016    288.95825 
    5900   0.96098974   -10442.517    574.23384    297.42645 
    5910   0.96114872   -10435.083     408.6101    306.74321 
    5920   0.96127686   -10428.883    629.20262    301.70483 
    5930    0.9613615   -10423.532    735.61386    296.64754 
    5940   0.96139467   -10418.489    537.89605    302.25768 
    5950   0.96138902   -10414.338      191.167     314.1029 
    5960   0.96136516   -10411.957    340.75192    306.58736 
    5970   0.96131615   -10410.796    554.72147    303.23488 
    5980   0.96122591   -10410.492    631.01707    305.28707 
    5990   0.96108738    -10411.09    705.58791    304.24655 
    6000   0.96089406   -10412.158    827.38457    298.74704 
    6010   0.96063858   -10413.808    689.68383     304.0476 
    6020   0.96032646   -10415.887    705.21813    304.72822 
    6030   0.95995733   -10418.822    807.57419    301.98952 
    6040   0.95952318   -10422.072    909.54139    292.23999 
    6050   0.95901832   -10424.856    708.85883    290.49819 
    6060   0.95845547   -10426.748    283.41533    297.45036 
    6070    0.9578643   -10428.615   -156.23164    305.23424 
    6080    0.9572746   -10431.013   -227.71199    299.36256 
    6090    0.9566955    -10433.84   -337.84285    301.11395 
    6100   0.95613313   -10437.055   -317.78362    299.21062 
    6110   0.95558686   -10440.365    -146.1299    290.04068 
    6120   0.95504742     -10443.4   -267.26228    290.89086 
    6130    0.9545226   -10445.829   -587.08049    296.32542 
    6140   0.95403496   -10448.047   -864.80001    295.32397 
    6150   0.95360659   -10450.452    -1124.074    298.76216 
    6160   0.95325428   -10453.344   -1006.6444    295.27628 
    6170   0.95297218   -10456.789   -745.39726    295.42656 
    6180   0.95274193    -10460.84   -519.87353     291.8567 
    6190   0.95254913   -10465.052   -529.62611    291.01954 
    6200    0.9523941   -10469.984   -637.43352    294.82421 
    6210   0.95228301   -10474.896   -492.74535    283.55051 
    6220   0.95220946   -10479.602   -570.57464    287.30559 
    6230   0.95217719   -10483.968   -694.35729    294.80912 
    6240   0.95219463   -10488.609   -621.16523    294.09054 
    6250   0.95225772   -10493.156   -441.39953    286.55804 
    6260   0.95235567   -10496.877   -400.55732    283.31546 
    6270   0.95248456   -10499.335   -417.92706    285.80498 
    6280   0.95264538   -10500.517    -359.9956    284.63483 
    6290   0.95283594   -10500.272    -417.9111     281.9518 
    6300   0.95306091   -10498.152   -612.23906    281.10705 
    6310   0.95333337    -10494.15   -799.69365    289.44903 
    6320   0.95366634   -10488.552   -803.20415    295.67248 
    6330   0.95406093   -10482.169   -554.63821    292.68444 
    6340   0.95450216   -10475.109   -401.29985     291.7362 
    6350   0.95497849   -10467.208   -315.58261    293.56617 
    6360   0.95548326   -10458.886   -229.86579    295.55096 
    6370   0.95601182   -10450.388   -352.75188    302.56358 
    6380   0.95657129   -10442.749   -428.44873    305.86688 
    6390   0.95716536   -10436.396   -101.42085    298.32068 
    6400   0.95777406   -10430.703    89.794792    300.16106 
    6410   0.95838111   -10425.345    326.46918    295.83061 
    6420   0.95897034   -10420.211     475.4935    295.41242 
    6430   0.95952965   -10415.211    533.29338    301.61216 
    6440   0.96005359   -10410.508    629.29408    301.52316 
    6450    0.9605364   -10406.661    561.46258    301.90364 
    6460   0.96098222   -10403.485    370.99227    305.93491 
    6470   0.96140247   -10401.228    385.56952    305.51659 
    6480   0.96179742   -10400.094    430.09538    306.40819 
    6490    0.9621631   -10400.236     461.0268    310.26058 
    6500   0.96249663   -10401.398    533.69833    305.94335 
    6510   0.96279472   -10403.973    378.73343     312.7714 
    6520   0.96306408   -10408.157    505.01558    309.17607 
    6530   0.96329751   -10413.352     779.2969    301.24539 
    6540   0.96347615   -10419.324    879.10597    302.52241 
    6550   0.96359208   -10425.638    771.30878    303.67873 
    6560   0.96365263   -10432.597    537.05929    306.85782 
    6570    0.9636731   -10440.447    408.74662    306.51908 
    6580   0.96366309   -10449.221    358.05682    306.95468 
    6590   0.96362554   -10458.291     440.3327    303.18683 
    6600   0.96355502    -10466.96    561.95029    301.74423 
    6610   0.96344355   -10474.895    551.56833    300.61774 
    6620    0.9632911   -10482.054    453.91026    300.82972 
    6630   0.96310311   -10487.939    489.16898    297.33957 
    6640   0.96287877   -10493.065    409.94923    301.08694 
    6650   0.96262134   -10497.576    454.47155    299.82077 
    6660   0.96233012   -10501.457     375.0796    297.55577 
    6670   0.96201072   -10504.694    112.25336    300.68968 
    6680   0.96168064   -10507.805   -87.768098    302.43499 
    6690   0.96135343   -10510.776   -62.410228    299.33648 
    6700   0.96102866   -10513.849    39.566283      295.245 
    6710   0.96069972   -10516.277    15.692126    295.36523 
    6720   0.96036832   -10518.297   -138.26903    298.15281 
    6730   0.96004368   -10520.017   -92.665011    297.58655 
    6740   0.95972344   -10521.582    67.202975    295.29403 
    6750   0.95939774   -10522.892     37.59575    295.16089 
    6760   0.95906866   -10523.641   -183.02016    294.41329 
    6770   0.95875078   -10523.998   -312.31335    292.61802 
    6780   0.95845462    -10523.91   -459.83505    296.49776 
    6790   0.95819014   -10523.428   -510.55607    297.70299 
    6800   0.95796076   -10522.942   -364.12444    295.73592 
    6810   0.95775723   -10522.286   -250.22186    291.11482 
    6820   0.95757345   -10521.053   -475.11987    298.34789 
    6830   0.95742206   -10519.398   -537.39223    298.60384 
    6840   0.95730872    -10517.71   -424.82979     294.8824 
    6850   0.95722653   -10515.664   -340.50986    296.64335 
    6860   0.95716868   -10513.157   -219.52508    295.59526 
    6870   0.95712684   -10510.298   -83.316348    293.78801 
    6880   0.95709084   -10506.664    58.379682    292.48568 
    6890   0.95705047   -10502.155    176.11659    290.98032 
    6900   0.95699802   -10496.443    100.77892    297.02226 
    6910   0.95693755   -10489.733   -2.3996991    298.63076 
    6920   0.95687728   -10482.589   -108.05987    294.95786 
    6930   0.95682625   -10474.857   -384.20432    300.57135 
    6940   0.95680182   -10466.751   -474.26859    307.32765 
    6950   0.95680906    -10459.21   -107.19872    298.99061 
    6960   0.95682647   -10452.166    58.845639    298.94552 
    6970   0.95683955   -10445.091    216.16185    297.37479 
    6980   0.95683758   -10438.134    288.89768    295.27175 
    6990   0.95681556   -10431.235    156.47933    301.30188 
    7000   0.95678127   -10424.497    65.560843    299.62267 
    7010   0.95674383   -10418.671   -216.71448    304.57039 
    7020   0.95672125   -10413.858   -403.28694    310.15404 
    7030   0.95672625   -10410.576    -263.5622     302.0844 
    7040   0.95675176   -10408.246   -160.00625    299.06186 
    7050   0.95678917   -10406.356   -100.29833    301.78112 
    7060   0.95683375   -10404.908   -35.873844    301.65478 
    7070   0.95688129   -10403.986    26.138696    299.42568 
    7080   0.95692764   -10403.494    23.167852    300.16953 
    7090   0.95697297   -10403.121   -45.326343    300.72704 
    7100   0.95702241   -10403.379   -112.64366    302.46081 
    7110   0.95707978   -10403.893   -78.833316    302.17202 
    7120   0.95714314   -10404.774   -16.329161    301.73152 
    7130    0.9572078   -10405.912     88.17381    296.10205 
    7140   0.95726702   -10406.822     141.1737    294.32313 
    7150   0.95731599   -10407.536    159.84309    297.78148 
    7160   0.95735252   -10407.809    261.21463    296.14015 
    7170   0.95737118   -10407.939    202.28807    301.70782 
    7180   0.95737554   -10408.453     90.88458    302.25755 
    7190   0.95737174   -10409.141    216.25488    295.66877 
    7200   0.95735265   -10409.901    304.14875    297.36435 
    7210   0.95731059   -10410.357    332.19573    296.90252 
    7220   0.95724558    -10410.58    106.57774    299.60891 
    7230   0.95717249   -10411.227   -165.01608     305.9806 
    7240   0.95710934   -10412.355   -193.77148    303.96697 
    7250   0.95706163   -10414.172   -340.19812    305.16262 
    7260   0.95703863   -10416.458   -452.02394    303.87888 
    7270   0.95704899   -10419.173   -513.70931    303.09988 
    7280    0.9570963   -10422.113   -415.07395    302.12641 
    7290   0.95717415   -10425.059   -271.67754    299.56614 
    7300   0.95727389   -10427.887   -332.37356    303.87058 
    7310   0.95739811   -10431.055   -325.16618    302.77562 
    7320   0.95754744   -10434.368   -271.15503    301.35716 
    7330   0.95771696   -10437.978   -124.35797    301.63015 
    7340   0.95789681   -10441.186     39.92998    296.50046 
    7350   0.95807541   -10444.196    115.98384    295.61292 
    7360   0.95824626   -10446.343    225.14001    291.13141 
    7370   0.95840339   -10447.816    139.02933    294.55128 
    7380   0.95855042    -10448.64    122.16773    295.56367 
    7390   0.95869019   -10449.227    35.204422    297.31936 
    7400   0.95882776   -10449.639    7.8354428    299.27172 
    7410   0.95896491   -10450.079    105.84252    298.13174 
    7420   0.95909567   -10450.762    142.47926    298.96049 
    7430   0.95921622   -10451.316    222.87955    297.51935 
    7440   0.95932152   -10451.983    247.81065     298.9537 
    7450   0.95940895   -10452.432    260.78578     296.6616 
    7460   0.95947936   -10452.956    81.564026     299.9744 
    7470     0.959543   -10453.593    10.713336    301.60787 
    7480   0.95960602   -10454.873   -8.3178515    306.51617 
    7490   0.95966789   -10456.973    228.20237    300.73152 
    7500    0.9597139   -10459.453    452.86646    291.99964 
    7510   0.95972959   -10461.632    299.70834    297.59941 
    7520   0.95972178   -10463.684    258.75772    298.68586 
    7530   0.95969439   -10466.074    304.82512    297.60739 
    7540   0.95964359   -10468.517    451.45434     290.7745 
    7550   0.95956045   -10470.208     454.1823    288.63858 
    7560    0.9594447    -10471.17    209.51263    293.40717 
    7570   0.95931356    -10471.62   -139.63781    298.53689 
    7580   0.95919135   -10472.243    -370.4151    303.24706 
    7590   0.95909336   -10473.426   -278.54383    297.57932 
    7600   0.95901637   -10475.137   -251.24867     293.9762 
    7610     0.958958   -10476.799   -323.44482    294.18514 
    7620   0.95892378   -10478.404    -497.4382    296.70732 
    7630   0.95892687   -10480.396   -762.60105    299.94613 
    7640   0.95898483   -10482.689   -775.18415    295.81578 
    7650   0.95910051   -10485.215   -650.28721    293.48167 
    7660   0.95926422    -10487.77   -427.86894    293.12465 
    7670   0.95945954   -10489.983   -116.70825    292.66028 
    7680   0.95966493   -10491.895     114.9534    294.76104 
    7690    0.9598626   -10493.397     337.4222    292.29537 
    7700   0.96003753   -10494.332    418.56938    290.80547 
    7710   0.96018315   -10494.562    432.13113    291.42697 
    7720   0.96029685    -10493.98    560.36733    288.52358 
    7730   0.96037068   -10492.325    577.31292    291.54973 
    7740   0.96040258    -10489.85    481.45742    293.11764 
    7750   0.96039918   -10486.574    362.30779    293.21813 
    7760    0.9603701   -10482.618    100.39395    301.46363 
    7770    0.9603319   -10478.706   -20.357811    305.88521 
    7780   0.96029392   -10475.569     38.18264    302.15245 
    7790   0.96025222   -10472.638    222.00963     295.9119 
    7800   0.96019466   -10469.733    331.14767    297.49525 
    7810   0.96011163   -10466.374    486.55701    294.55874 
    7820   0.95999368    -10462.59    447.60531    296.38018 
    7830    0.9598426    -10458.32    295.36717    297.04742 
    7840   0.95966971   -10454.005    76.475337    301.06815 
    7850   0.95948965   -10449.835   -65.411035    305.11915 
    7860   0.95931263   -10446.269    -70.39999    302.05281 
    7870   0.95914008   -10442.978   -47.807503    298.44023 
    7880   0.95897051   -10439.854   -27.845267    300.39375 
    7890   0.95880133   -10436.625    62.951017    302.60721 
    7900   0.95862652   -10434.008    136.61484    305.08749 
    7910   0.95843995   -10432.133    266.70466    303.56153 
    7920   0.95823332   -10430.832    305.45175    301.79081 
    7930   0.95800385   -10429.824    211.48679     302.9134 
    7940   0.95775728   -10429.566    159.07693    305.39886 
    7950   0.95749634   -10429.922    335.49319    297.70263 
    7960     0.957211   -10430.644    356.09466    296.01695 
    7970   0.95689887   -10431.192    194.60269    299.72311 
    7980    0.9565707   -10431.917    45.430285    301.42588 
    7990   0.95623674   -10432.755 -0.071483445    295.11382 
    8000   0.95590374   -10433.657   -364.16888    298.98066 
    8010   0.95559652   -10435.042   -815.46066    307.04793 
    8020    0.9553465   -10437.398     -977.035     304.1069 
    8030   0.95516555   -10440.469   -797.32325    294.31159 
    8040   0.95504414   -10444.108   -780.41228    301.94506 
    8050   0.95497743   -10448.597   -538.37625     300.9666 
    8060   0.95494997    -10453.95   -191.44662    292.88624 
    8070   0.95493868   -10459.536   -142.05512    298.93211 
    8080   0.95493703   -10465.693   -63.554703    297.10484 
    8090   0.95494093   -10471.977   -28.218661    289.14267 
    8100   0.95494916   -10477.868   -225.92075    293.17735 
    8110   0.95497336   -10483.529   -361.02121    295.13717 
    8120    0.9550241    -10489.46   -479.60201     301.1551 
    8130   0.95510939   -10495.893   -471.80097    300.16044 
    8140   0.95522979   -10502.629   -401.96342    294.47611 
    8150   0.95538119   -10509.055   -363.43523    290.35012 
    8160   0.95556105   -10514.812   -413.82003    291.76871 
    8170   0.95577197   -10519.747   -424.51455    292.60567 
    8180   0.95601482   -10524.177    -348.9078    292.21071 
    8190   0.95628418   -10527.939   -217.71662          294 
    8200   0.95657034   -10531.171    23.254174    291.76506 
    8210   0.95685705   -10533.842    167.47846    292.95985 
    8220    0.9571328   -10535.737     288.6715    288.59037 
    8230   0.95738961   -10536.753    275.35572    288.80791 
    8240   0.95762742    -10536.75    241.05689    290.02803 
    8250   0.95784822   -10535.607    293.03187    287.58714 
    8260   0.95804828   -10533.158    378.13595    285.50334 
    8270   0.95822267   -10529.293    292.09437    292.10562 
    8280   0.95837491   -10523.978    325.83917    294.63657 
    8290    0.9585036   -10517.695    382.11102    296.27403 
    8300    0.9586049   -10510.579    385.68933    297.00785 
    8310   0.95867794   -10502.375    442.24182    292.69246 
    8320   0.95871974    -10493.21    404.33907    292.26982 
    8330   0.95873196   -10482.876    325.93302    295.16218 
    8340   0.95872062   -10471.927    200.15646    300.86262 
    8350   0.95869338   -10461.304     221.6044    300.72006 
    8360   0.95864948   -10451.968    331.56319    298.23371 
    8370   0.95858142   -10443.812    380.48927     297.9548 
    8380   0.95848539   -10436.824    290.34798    300.62375 
    8390   0.95836844   -10431.381    38.717702    307.02989 
    8400    0.9582466   -10427.928   -54.889934    310.92291 
    8410   0.95812598   -10426.392    164.32604    307.82026 
    8420   0.95799301   -10426.489     392.4313    304.83833 
    8430   0.95783056   -10427.219     597.4539    299.57538 
    8440   0.95762496   -10428.131    592.78489    298.39961 
    8450    0.9573751   -10428.954    466.01762    300.71736 
    8460   0.95708992   -10430.128    251.89579    305.79718 
    8470   0.95678398   -10431.897    127.62143    306.39187 
    8480    0.9564658   -10434.468    238.51448    303.02727 
    8490   0.95612778   -10437.543    423.70578    300.06653 
    8500   0.95575774   -10440.552    453.78001    298.43431 
    8510   0.95535301   -10443.602    381.87932    296.85229 
    8520   0.95491796   -10446.254      403.235    290.78954 
    8530   0.95445276   -10448.236    258.94421    291.84248 
    8540    0.9539668   -10449.144    71.326295    292.70518 
    8550   0.95347334   -10449.511   -49.182055     294.2494 
    8560   0.95298082   -10449.388   -11.232904    293.35277 
    8570   0.95248821   -10448.659   -44.076954    293.60236 
    8580    0.9519971   -10447.451   -92.911288    295.23513 
    8590   0.95150998   -10446.015    1.2797201    293.70813 
    8600   0.95102153   -10443.874     88.95444    288.50354 
    8610   0.95052708   -10440.478   -39.995427    290.00021 
    8620   0.95003482   -10436.092   -278.15403    294.64156 
    8630   0.94956204   -10430.924   -513.26055    297.16914 
    8640    0.9491255   -10425.225   -635.87903    296.49334 
    8650   0.94873525   -10419.097    -768.7004     297.7214 
    8660   0.94840045   -10412.718   -825.25619    298.88186 
    8670    0.9481243   -10406.089   -655.64272    295.81456 
    8680     0.947897   -10399.177   -612.93216    292.82004 
    8690   0.94771646   -10391.731   -874.53683    299.79414 
    8700   0.94759905    -10384.05   -1029.9459    298.19706 
    8710   0.94755832   -10376.831   -1211.8976    300.86154 
    8720   0.94760506   -10370.191   -1151.8779    303.40341 
    8730   0.94773504   -10364.376   -827.44681    295.89152 
    8740   0.94792881   -10359.054   -782.11562    302.08541 
    8750   0.94817945    -10354.39   -631.94297    302.61815 
    8760   0.94847788    -10350.62   -508.19124    301.84394 
    8770   0.94881464   -10347.657   -392.47605    301.98694 
    8780    0.9491809   -10345.179   -202.22456    297.10501 
    8790   0.94956506   -10343.245   -223.43885    300.53755 
    8800   0.94996599   -10341.677   -162.89208    303.22206 
    8810    0.9503792    -10340.88    22.871487    303.05111 
    8820   0.95079185   -10340.688    209.56086    299.58402 
    8830   0.95119236    -10340.68    137.51429    298.82473 
    8840   0.95158488    -10340.95   -122.15209    308.01969 
    8850   0.95198432   -10342.224   -41.926632    307.61313 
    8860   0.95238733   -10344.385    148.53806    301.79308 
    8870   0.95278178   -10346.667      162.248    299.58408 
    8880   0.95316541   -10348.562    184.29063    294.93497 
    8890   0.95353656   -10350.296    180.34788    300.04906 
    8900    0.9538943   -10351.812    242.55394    300.97297 
    8910   0.95423578   -10353.578    189.11409    304.26861 
    8920   0.95456341    -10355.81    160.79296    303.98851 
    8930   0.95488053   -10358.225    108.74979    301.07308 
    8940   0.95518984   -10360.767    108.81601    301.83915 
    8950   0.95549127   -10363.511    185.43357     303.1259 
    8960   0.95577896   -10366.523    318.48234    304.04329 
    8970   0.95604347   -10370.033    432.14395    306.74215 
    8980   0.95627648   -10374.149    521.96492    305.93232 
    8990   0.95647307    -10378.82    447.09878     308.7097 
    9000   0.95663558   -10384.149    550.19166     302.3915 
    9010    0.9567585   -10389.255    617.50471     297.6619 
    9020   0.95683679   -10394.233    559.45719    301.56975 
    9030   0.95687303   -10398.752    630.61228    296.39667 
    9040    0.9568636   -10402.641    640.86116    292.55816 
    9050   0.95680844   -10405.842    415.85472    297.75495 
    9060   0.95672174    -10408.65    228.61487    304.73333 
    9070   0.95661687   -10411.961      206.393    303.31995 
    9080   0.95649592   -10415.478    325.19235    296.02334 
    9090   0.95635198   -10418.426    285.81567    293.02922 
    9100    0.9561874   -10420.797    79.042971    298.88247 
    9110   0.95601585   -10423.176   -66.553111    303.76128 
    9120    0.9558475   -10425.834    -14.44298    299.31732 
    9130   0.95568054   -10428.682   -9.3313537    297.59794 
    9140   0.95551379   -10431.238     21.69908    293.99354 
    9150   0.95534555   -10433.222    -8.234405    295.93043 
    9160   0.95517686   -10435.002   -58.860688    300.02193 
    9170   0.95501142   -10436.959   -94.894145    300.74315 
    9180   0.95485256   -10439.096   -120.82813    301.79765 
    9190   0.95470219   -10441.546   -91.320516    297.25348 
    9200   0.95455978   -10444.132   -253.73161    300.77855 
    9210     0.954435   -10447.058   -400.18433    303.74773 
    9220   0.95433802   -10450.651   -349.53869    300.49339 
    9230   0.95426654   -10454.356   -239.72319    292.97514 
    9240   0.95421546   -10457.564   -483.24431    297.87383 
    9250   0.95419944   -10461.164   -744.99326    305.15198 
    9260   0.95423533   -10465.423   -616.08472    300.11354 
    9270   0.95431707   -10470.307   -460.23262    301.30207 
    9280   0.95443247   -10475.492   -293.30067    297.82718 
    9290   0.95457242   -10481.275   -433.64706    301.78248 
    9300   0.95474325   -10487.674   -424.88937    301.50125 
    9310   0.95494646   -10494.454   -409.55203    299.11645 
    9320   0.95518202   -10501.867   -520.60544    298.78165 
    9330   0.95545573   -10509.324    -384.5064    292.51968 
    9340   0.95575934   -10516.224   -223.65908    291.72158 
    9350   0.95608128   -10522.621   -185.02239    296.52805 
    9360   0.95641725   -10528.614   -69.792489    292.84538 
    9370   0.95676072   -10533.923    -47.95119    288.18192 
    9380   0.95711114   -10538.189    -271.4779    292.31696 
    9390   0.95748187   -10541.682   -331.81497    295.20755 
    9400   0.95787631   -10544.662   -32.720686    290.53762 
    9410   0.95827521   -10546.887    246.08729    291.56165 
    9420   0.95865759   -10547.771    480.57957    285.07518 
    9430   0.95900833   -10547.634    412.08731    287.58313 
    9440   0.95932954    -10546.25    386.42476    287.41577 
    9450   0.95962281   -10543.419    492.53368    281.09004 
    9460   0.95988355   -10539.092    218.54039     290.7159 
    9470   0.96012839   -10533.832   -47.278293    300.56417 
    9480   0.96037592   -10528.735   -40.492165    297.47814 
    9490   0.96062767   -10523.917    27.175214    293.79071 
    9500   0.96087912   -10519.073    36.215355    295.24196 
    9510   0.96112872   -10514.385    77.654638    297.87337 
    9520     0.961374   -10510.177    39.123195    301.29116 
    9530   0.96161722   -10507.087    6.6188529    303.34964 
    9540   0.96186001   -10505.066    182.98286    294.95253 
    9550   0.96209157   -10503.599     267.3579    293.70534 
    9560   0.96230476    -10502.14    248.27184    297.35218 
    9570     0.962501   -10501.159    118.79517    299.84568 
    9580   0.96268954   -10500.491   -33.731498    302.77198 
    9590   0.96288053   -10500.584   -43.057666    302.80593 
    9600   0.96307496   -10501.011    51.784833    302.49005 
    9610   0.96326634   -10502.051    154.66206    302.15915 
    9620   0.96344726   -10503.391    249.67782    297.23872 
    9630   0.96361128   -10504.704    271.76693    296.59901 
    9640   0.96375517   -10505.546    354.69839    294.80597 
    9650    0.9638757   -10506.401     186.9069    300.53751 
    9660   0.96398203    -10507.23    135.26385    297.85874 
    9670   0.96407993   -10508.216    36.392334    298.24098 
    9680   0.96417438   -10509.192    64.896022    296.99932 
    9690   0.96426377   -10509.808     215.8526    290.96696 
    9700   0.96433988   -10510.089    90.661729    296.88578 
    9710   0.96440787   -10509.968    130.92969    296.21929 
    9720   0.96446754   -10509.497     106.1728    292.96637 
    9730   0.96452149   -10508.707   -121.26288    295.73564 
    9740   0.96458422   -10507.331   -281.78891    296.93089 
    9750   0.96466795   -10506.011   -373.83959    301.40165 
    9760   0.96477793   -10504.865   -201.04939    298.32908 
    9770   0.96490427   -10503.816   -57.064521    298.51116 
    9780   0.96503467   -10502.731    198.80663    296.91569 
    9790   0.96515133   -10501.341    433.36537    292.53491 
    9800   0.96523808   -10499.292    472.31127    289.50897 
    9810   0.96529253   -10496.467    223.75701     298.3253 
    9820   0.96532913   -10493.125    84.496372    303.63155 
    9830   0.96535989   -10490.256   -17.347988    302.71998 
    9840   0.96539263   -10487.976   -156.44733    302.70306 
    9850   0.96543627   -10485.965   -127.58157    300.96728 
    9860    0.9654886   -10484.373    75.815073    299.28413 
    9870    0.9655358   -10482.984    250.01636    296.44035 
    9880    0.9655661   -10481.191    247.89288    293.01636 
    9890   0.96557899   -10478.793    135.12846    294.22707 
    9900    0.9655818   -10475.741    13.943236      299.426 
    9910   0.96558353   -10472.717   -76.048766    305.24671 
    9920   0.96559005   -10470.328   -27.502638    306.20617 
    9930   0.96559795   -10468.571    111.35899     300.4369 
    9940   0.96559923   -10467.083    72.696803    301.08391 
    9950   0.96559479   -10465.885    68.035233    301.65472 
    9960   0.96558407   -10464.912    269.84559    298.25102 
    9970   0.96555413   -10464.468    373.56033    305.25441 
    9980   0.96549417    -10464.25     680.0416    297.17588 
    9990   0.96538612   -10464.215     677.8712    292.99141 
   10000   0.96522871   -10463.661    390.75185      296.565 
   10010   0.96503953   -10462.394    303.64913    294.50936 
   10020   0.96482638   -10460.999    230.95838    300.07129 
   10030   0.96459278   -10459.259    263.64083    300.81656 
   10040    0.9643377    -10457.92    303.82475    301.26703 
   10050   0.96405679   -10456.782    461.07076     296.2087 
   10060   0.96374004   -10455.341    501.41408    298.52602 
   10070   0.96338364   -10453.784    404.35678      300.716 
   10080    0.9629954    -10452.19    125.13883    301.03961 
   10090   0.96259356   -10451.004   -34.887458     304.8053 
   10100   0.96218804   -10450.074    131.65304    299.45283 
   10110   0.96177025   -10449.509    147.31113    301.33074 
   10120   0.96133741   -10449.295    135.30869    304.32762 
   10130   0.96088982     -10449.9    205.40205    300.32619 
   10140   0.96042402   -10450.619    129.10351     297.4154 
   10150   0.95994642   -10451.648   -197.72014    303.55959 
   10160   0.95947784   -10453.178   -396.94387    299.98036 
   10170   0.95903662   -10455.538   -831.27977     309.6037 
   10180    0.9586495   -10459.143   -859.43345    305.06315 
   10190   0.95832286    -10463.83   -792.08161    299.00583 
   10200   0.95805217   -10469.466   -759.63921    301.42292 
   10210    0.9578341   -10475.746   -599.54513    300.80508 
   10220   0.95765807   -10482.819   -374.93003    296.36578 
   10230   0.95750848   -10489.574   -181.49995    288.65366 
   10240   0.95737313   -10495.753   -302.77557     293.5744 
   10250   0.95725864   -10501.684   -468.09836    301.73821 
   10260   0.95717605   -10507.662   -447.37167    298.89208 
   10270    0.9571261   -10513.831   -423.83273    296.73362 
   10280   0.95710645   -10519.896   -323.80816    296.57856 
   10290    0.9571107   -10525.493   -246.77854    294.24082 
   10300    0.9571346   -10530.676   -325.00931    292.30702 
   10310   0.95718309   -10535.041   -395.32618    291.24882 
   10320    0.9572605   -10538.521   -347.20997     291.1324 
   10330    0.9573653   -10541.112   -387.36597    292.35694 
   10340   0.95750038   -10543.123   -483.91125    294.12363 
   10350   0.95767257   -10544.469   -543.67684    293.30162 
   10360   0.95788792   -10545.371   -636.61464    294.52135 
   10370   0.95815178   -10545.946    -554.6072    294.13515 
   10380   0.95845897   -10545.793   -357.12113    292.31366 
   10390   0.95879729   -10545.354   -300.21307    295.33963 
   10400     0.959162   -10544.235    -259.6809    290.36475 
   10410   0.95955094   -10542.198   -193.66339    286.02606 
   10420   0.95996025   -10538.584   -229.27375      287.112 
   10430    0.9603928    -10533.59   -446.87164    293.01136 
   10440   0.96086336   -10527.514   -605.13235    300.01975 
   10450   0.96138216   -10520.765   -402.08463    294.94639 
   10460   0.96193786   -10513.176    -198.3709     290.9302 
   10470   0.96251487   -10504.438    48.977791    291.10158 
   10480   0.96309529   -10494.147    298.81469    290.64641 
   10490   0.96366256   -10483.148    272.08924    297.32667 
   10500    0.9642162   -10471.975    251.62455    297.67359 
   10510    0.9647582   -10462.056    207.07842    300.90155 
   10520   0.96529096   -10453.707    133.71171    307.54358 
   10530   0.96581864    -10447.52    242.60421    302.45279 
   10540   0.96633617   -10443.327     194.3581    304.19467 
   10550   0.96684437   -10440.399    203.02727    303.55488 
   10560   0.96734268   -10438.922    316.15038    305.17136 
   10570   0.96782118   -10438.244    683.37342     300.1345 
   10580   0.96825476   -10437.763    1016.1965    296.02042 
   10590   0.96862024   -10437.554    980.19117    301.71718 
   10600   0.96891724   -10437.443    830.39562    303.87881 
   10610   0.96915695    -10438.42    534.70125    311.65111 
   10620   0.96935797   -10440.714    441.73373    307.47778 
   10630   0.96952923   -10444.163    346.45818    306.81386 
   10640   0.96967659   -10448.391    266.88541    307.61538 
   10650   0.96980537    -10453.49    273.03187    306.99881 
   10660   0.96991351   -10459.327    555.54194    300.08613 
   10670   0.96998206    -10465.15    831.53294    299.00346 
   10680    0.9699909   -10470.996    872.03555    304.90919 
   10690   0.96993559    -10477.26    789.15994     305.3768 
   10700   0.96982179   -10484.183    604.51652    306.73803 
   10710   0.96966114   -10491.591    476.56145    307.89897 
   10720   0.96946244   -10499.752    451.00625    305.89995 
   10730   0.96922745   -10507.793    534.66078    295.76389 
   10740   0.96895272   -10515.098    305.62822    301.19127 
   10750   0.96865004   -10521.881     218.9223    301.64228 
   10760    0.9683261   -10527.806    370.37097     290.0543 
   10770   0.96797364   -10532.821     126.7838    299.37618 
   10780   0.96760515   -10537.105    62.751461    294.78586 
   10790   0.96722783   -10540.381     11.33323    288.57387 
   10800    0.9668457   -10542.535    -216.6256    292.94454 
   10810   0.96647334   -10543.922   -285.55257    293.00803 
   10820   0.96611618   -10544.398   -156.67693    286.55426 
   10830   0.96576791   -10543.981   -235.67779    293.32384 
   10840   0.96543076   -10542.678   -182.44336    293.55251 
   10850   0.96510306   -10540.932    -175.7194    290.51864 
   10860    0.9647842    -10538.54   -251.46059    294.17082 
   10870    0.9644785   -10535.401   -223.77593    293.09354 
   10880   0.96418584   -10532.046   -265.27716     293.1854 
   10890   0.96390868   -10528.072   -316.34199    293.13181 
   10900   0.96365049   -10523.591   -328.43282    297.71602 
   10910   0.96341145    -10518.98   -170.27817    297.38286 
   10920   0.96318172   -10514.236   -32.172786    292.26948 
   10930   0.96295269    -10509.17    -88.81722    294.41341 
   10940   0.96272646   -10503.395   -138.98575    295.24716 
   10950   0.96250743   -10497.607   -267.03832    301.34513 
   10960   0.96230415   -10492.087   -350.62086    305.33797 
   10970   0.96212371   -10487.477   -360.32913    301.84388 
   10980   0.96196689   -10483.598   -238.11893    299.56116 
   10990   0.96182411   -10479.858    30.222367     298.5287 
   11000   0.96167707   -10476.259    229.78281    292.63226 
   11010   0.96151311   -10472.514    83.002772    293.60488 
   11020   0.96133912   -10468.415     2.587715    298.11587 
   11030   0.96116043   -10464.247    111.95234     299.8498 
   11040   0.96097007   -10460.346    256.09772    300.08824 
   11050   0.96075792   -10456.896    341.92864    300.59147 
   11060   0.96051755   -10453.937    288.58594    302.12998 
   11070   0.96025104   -10451.566    240.78949    300.78617 
   11080   0.95996205   -10449.527    172.31202    298.17739 
   11090    0.9596564   -10447.757   -68.564554    301.73236 
   11100   0.95934952   -10446.374   -229.07366    303.41223 
   11110   0.95905288   -10445.682   -211.43415     303.2421 
   11120   0.95876456   -10445.307    41.886705    292.22324 
   11130   0.95847119   -10444.732   -117.43887    296.27373 
   11140    0.9581798    -10443.73   -238.85437    300.51299 
   11150   0.95790016   -10443.221   -332.09736    304.40942 
   11160   0.95763905   -10443.332   -340.57318    303.81199 
   11170    0.9573974   -10444.093   -171.88655    297.68803 
   11180   0.95716394   -10444.818   -17.750886    294.82359 
   11190   0.95692852   -10445.061   -75.347459    293.79146 
   11200   0.95669491   -10445.088    -325.4203    302.45725 
   11210   0.95647898   -10445.506   -424.55947     306.8464 
   11220   0.95628853   -10446.901   -304.05115    299.09285 
   11230   0.95611873   -10448.731   -390.55669    297.86831 
   11240   0.95597406   -10451.245   -435.73297    299.85339 
   11250   0.95585677   -10454.163   -218.07938    291.24744 
   11260   0.95575577   -10458.096   -317.02256    298.09946 
   11270   0.95567503   -10463.007   -399.06232    297.03279 
   11280   0.95562278   -10470.151   -462.56301     295.0179 
   11290   0.95560293   -10479.286   -400.21997    290.39008 
   11300   0.95561407   -10490.012   -489.57226    290.23814 
   11310   0.95566194   -10501.204   -617.18559     288.8734 
   11320   0.95575741   -10511.967   -798.18082    289.48407 
   11330   0.95591416    -10522.13   -929.95264    297.34604 
   11340   0.95614021   -10531.855   -581.93416    291.87256 
   11350   0.95641498   -10539.833   -137.68312    280.00666 
   11360   0.95670962   -10545.528   -68.883794    280.39482 
   11370    0.9570162    -10548.81   -56.099818    280.90013 
   11380   0.95733515   -10550.231   -182.91937    287.18365 
   11390   0.95767467   -10550.405   -282.27418    290.91907 
   11400   0.95804327   -10549.926   -375.36426    298.03191 
   11410    0.9584453   -10548.984   -74.770992    291.65783 
   11420   0.95886359   -10547.315    165.23546    284.25427 
   11430   0.95928085   -10544.442     167.8308    291.67606 
   11440   0.95969397   -10540.362     312.5927    290.47567 
   11450   0.96009393   -10535.589    392.55279    291.47006 
   11460   0.96047312   -10529.903    508.82256    292.84556 
   11470   0.96082348   -10523.398    550.45354    294.18999 
   11480   0.96114224   -10516.658    370.09439    302.60338 
   11490   0.96143943   -10510.234    330.31526     300.8368 
   11500   0.96171846   -10504.274    387.10438    297.37867 
   11510   0.96197607    -10498.69    288.65174    302.20574 
   11520   0.96221769   -10493.514    190.57755    303.01039 
   11530   0.96245016   -10489.312    167.69218    303.14279 
   11540   0.96267476   -10485.732    189.89373    303.76848 
   11550   0.96288964   -10482.923    285.83567    299.72211 
   11560   0.96308807    -10480.36    411.62601    297.69304 
   11570   0.96325979   -10477.918     567.9014    298.26148 
   11580   0.96339395   -10475.452    584.72435     301.3002 
   11590    0.9634869   -10473.265    623.27435     302.4256 
   11600   0.96353431   -10471.298    817.91602    295.76055 
   11610   0.96352454    -10469.58    674.88789    301.82694 
   11620   0.96346408    -10467.91    489.72381    302.19384 
   11630   0.96336619   -10466.786    352.74094    301.62557 
   11640    0.9632399   -10465.979    261.19679    301.32037 
   11650   0.96309143   -10465.648    189.48712    302.31144 
   11660   0.96292567    -10465.82    121.46677    304.04545 
   11670   0.96274702   -10466.636    134.71522    302.33837 
   11680   0.96255514   -10468.291    137.19534    303.47278 
   11690   0.96234751   -10470.437    392.75641    293.09565 
   11700   0.96210901   -10472.609    413.56945    294.62974 
   11710   0.96183545   -10474.758    301.24816    299.85328 
   11720   0.96153407    -10477.31    216.38713    298.27052 
   11730   0.96121146    -10480.64    88.781234    299.53683 
   11740   0.96087705   -10484.556   -79.227038    299.09868 
   11750   0.96054261   -10489.334   -186.86548    295.58924 
   11760   0.96021591    -10494.79   -180.88876    295.64678 
   11770   0.95989522   -10500.395     33.39979    291.73059 
   11780   0.95956937   -10506.302   -112.17241    295.28827 
   11790   0.95924696   -10512.951   -411.50184    302.49126 
   11800   0.95894811   -10519.965    -397.3167    291.58137 
   11810   0.95867609   -10527.055   -507.26926    291.10457 
   11820   0.95843699   -10533.696   -556.10197    289.74337 
   11830   0.95823507   -10539.521   -506.12667    286.26352 
   11840   0.95806883   -10544.276   -638.40915    290.48941 
   11850   0.95794673   -10548.271   -730.80893    294.87401 
   11860   0.95787515   -10551.853   -552.70312    289.02675 
   11870   0.95784408   -10554.212   -342.76578    280.12974 
   11880   0.95783975   -10554.948   -375.70714    283.92145 
   11890   0.95786232   -10554.071   -370.62759    285.18704 
   11900    0.9579132   -10551.737   -442.51572    289.64166 
   11910    0.9579965   -10548.213   -434.91032    294.35873 
   11920    0.9581119   -10543.982   -257.74932    295.22766 
   11930   0.95824716   -10538.969    13.072137    289.93262 
   11940   0.95838552   -10533.095   -14.028021    293.48662 
   11950   0.95852637   -10525.791   -65.624132    293.39138 
   11960   0.95867465    -10517.89   -187.34539    296.62323 
   11970   0.95883852   -10509.373   -313.23887    300.50877 
   11980   0.95902748   -10501.242    -377.0955    303.67502 
   11990   0.95924531   -10493.888   -234.50196    299.10552 
   12000   0.95948368    -10487.02   -89.694551    292.95044 
   12010   0.95973293   -10480.377   -153.48086    299.75436 
   12020   0.95999491   -10473.995   -104.63819     302.4774 
   12030   0.96026807    -10468.75   -101.40598    304.27891 
   12040   0.96055134   -10464.717   -59.333987    304.85244 
   12050   0.96084026    -10461.65    220.54092     299.8398 
   12060   0.96111691   -10459.088     376.3559    296.65562 
   12070   0.96137008   -10456.945    287.72835     298.1141 
   12080    0.9616048   -10454.965    156.89133    298.04873 
   12090    0.9618305   -10453.351   -20.668396    303.58943 
   12100    0.9620582   -10452.446    23.129496    303.26502 
   12110   0.96228467   -10452.014    345.01676    293.64959 
   12120   0.96248945   -10451.444    440.87336    296.72741 
   12130   0.96266292    -10450.71    515.12629    299.53528 
   12140   0.96279997   -10450.201    564.54858    298.02744 
   12150   0.96289738   -10449.825    518.32749    297.78229 
   12160   0.96295713   -10449.133    528.44218    290.58739 
   12170   0.96297988   -10448.125    351.56961    298.28189 
   12180   0.96297559   -10447.003    245.09167    302.64664 
   12190    0.9629526   -10446.549     217.1553    303.18923 
   12200   0.96291244   -10446.502    337.22317    296.62454 
   12210    0.9628479   -10446.628    396.47641    295.10318 
   12220   0.96275373   -10446.357    441.15304     294.6695 
   12230   0.96262675    -10445.77    391.26558    298.23237 
   12240   0.96246941   -10445.089    350.16941    302.42275 
   12250   0.96228406   -10445.068    395.87197    301.99166 
   12260   0.96206904   -10445.547    349.95233    300.84924 
   12270   0.96182723   -10446.272    208.37571    301.17514 
   12280   0.96156755   -10447.487    148.46109    304.84332 
   12290   0.96129404   -10449.336    255.31591    300.32758 
   12300   0.96100035   -10451.444    317.68404     299.5313 
   12310   0.96068156   -10453.581    326.41006    298.95098 
   12320   0.96033703   -10455.894    273.00447    299.85121 
   12330   0.95997029   -10458.308    187.28857    300.42855 
   12340   0.95958719   -10460.694    171.47466    294.71082 
   12350   0.95919083   -10462.678    38.104912    291.19031 
   12360   0.95879081   -10463.943   -265.99902    297.40147 
   12370   0.95840775   -10465.209   -514.54743    304.36522 
   12380    0.9580586   -10467.095    -488.5563    303.15586 
   12390   0.95774377   -10469.567   -387.79425    299.64412 
   12400   0.95745571   -10472.257   -239.71714    295.48307 
   12410    0.9571835   -10474.618   -15.202187    287.73313 
   12420   0.95691366    -10476.23   -114.56413    291.20058 
   12430   0.95665175   -10476.812   -421.26632    299.13852 
   12440    0.9564188   -10477.664   -622.16672    300.64816 
   12450   0.95622839   -10478.812   -450.24807    293.37058 
   12460    0.9560708   -10479.582   -278.20799    289.21446 
   12470   0.95593355   -10479.576   -209.53238    288.34506 
   12480   0.95581126    -10478.28   -185.37939    289.05857 
   12490    0.9557038   -10475.278    -377.2722    292.73975 
   12500   0.95562485   -10470.141   -713.90998    298.10018 
   12510   0.95559647   -10462.898   -831.11459    299.11566 
   12520   0.95562855   -10453.884   -803.21933      299.655 
   12530   0.95571991   -10443.375   -735.17619    301.20397 
   12540   0.95586516   -10432.056   -483.93739    295.68395 
   12550   0.95604831   -10420.335   -336.03498    298.17767 
   12560   0.95625697   -10408.826   -224.20986    301.23367 
   12570   0.95648317   -10398.169   -134.13214     297.8201 
   12580   0.95672299    -10388.69   -356.04662    308.38041 
   12590   0.95698718   -10380.879   -214.06858    305.99845 
   12600   0.95726899   -10374.868   -35.635621    301.75677 
   12610   0.95755482   -10369.886    139.73097     298.2255 
   12620   0.95783263   -10365.325    175.43423    300.26005 
   12630   0.95809872   -10361.366    184.05859    303.01188 
   12640   0.95835193    -10357.95    242.91165    303.33332 
   12650   0.95858882   -10355.198    226.93205    300.58214 
   12660   0.95881092   -10352.886    110.13879     301.6491 
   12670   0.95902489   -10351.069    101.15298    304.77383 
   12680   0.95923155   -10350.043    215.88539    307.51912 
   12690   0.95942237   -10350.237    440.81579    306.36109 
   12700   0.95958209   -10351.361    582.07642    304.13305 
   12710   0.95970021   -10353.294    610.82369    303.09419 
   12720   0.95977374    -10355.78    659.40709    297.16112 
   12730   0.95980079   -10358.369    473.10358    299.42666 
   12740   0.95979367   -10361.465    133.08352        309.3 
   12750   0.95977472   -10365.715     31.77578    308.01233 
   12760   0.95975349   -10371.832   -7.1806797    306.64256 
   12770   0.95973125    -10378.64    173.23998    296.31678 
   12780   0.95969761   -10385.363    197.49662    297.10478 
   12790   0.95964964   -10391.982    86.061224    298.81531 
   12800   0.95959553   -10398.671   -71.301339    299.18831 
   12810   0.95954633   -10405.354   -203.14552    298.41331 
   12820   0.95951241   -10411.987   -406.73294    301.17896 
   12830   0.95950761   -10418.862   -520.70643    303.54824 
   12840    0.9595394   -10425.615   -338.97826    296.30439 
   12850   0.95959666    -10432.01   -137.07731    293.03266 
   12860   0.95966509   -10437.196   -60.210197    294.27561 
   12870   0.95973904   -10441.971   -94.448117    296.95562 
   12880   0.95981853   -10445.904    66.890964    294.06213 
   12890   0.95989404   -10449.212    193.19896     292.8221 
   12900   0.95995638   -10451.758    209.41554    296.60813 
   12910   0.96000224   -10454.024    339.64998    297.38835 
   12920   0.96002376   -10455.862    365.94667    296.11082 
   12930    0.9600195   -10457.705    182.03617    299.25364 
   12940   0.96000099   -10459.177    114.45681    294.68672 
   12950   0.95997582   -10460.794   -177.52014     303.6947 
   12960   0.95996125   -10462.608   -245.30979    302.96239 
   12970   0.95996468   -10464.984   -231.30265    301.94416 
   12980    0.9599847   -10468.077    -180.4303    305.03856 
   12990   0.96001696   -10471.677    32.545467    298.01973 
   13000   0.96004796   -10475.268    167.12941    292.75307 
   13010    0.9600678   -10478.128    172.00351     294.3903 
   13020   0.96007463   -10480.694    192.50573    294.06764 
   13030   0.96006806    -10482.65    121.51246    293.99432 
   13040   0.96005265   -10484.177    18.643422    293.59204 
   13050   0.96003539    -10485.38   -28.294444    293.50236 
   13060   0.96001931   -10485.939    53.811025    292.23754 
   13070   0.96000003    -10485.98    48.071526    294.43992 
   13080   0.95997691    -10485.33    67.292233    292.15377 
   13090   0.95994922   -10484.109    23.876313    293.26355 
   13100    0.9599201   -10482.068   -105.09775    298.26025 
   13110   0.95989636   -10479.628     65.62318    292.60408 
   13120   0.95986872   -10476.141    155.72334    293.91132 
   13130    0.9598292   -10471.166    175.05091     295.1262 
   13140   0.95977784   -10464.487    3.7149084    299.70062 
   13150   0.95972525   -10456.038   -113.76101    302.60339 
   13160    0.9596797   -10446.189   -51.592089    302.69913 
   13170   0.95963631    -10435.23    185.36749    305.68681 
   13180   0.95957747   -10423.596    588.55175    300.38574 
   13190   0.95947637    -10412.07    771.47625    299.02931 
   13200   0.95931871   -10400.554    735.09714    299.45631 
   13210   0.95910561   -10389.707    676.50055     300.5027 
   13220   0.95884083   -10380.287    631.38209     304.7251 
   13230   0.95852641   -10372.495    675.79148    305.14869 
   13240   0.95816009   -10366.739    685.72035    302.90445 
   13250   0.95774118   -10362.088    582.07349    303.03111 
   13260   0.95727694   -10358.605    397.60996    306.41667 
   13270   0.95677912   -10356.295    349.95047    307.51959 
   13280   0.95625132   -10355.252    435.17367    303.09164 
   13290   0.95568947    -10355.14    322.07226    306.55014 
   13300   0.95509949   -10356.191    240.65782     308.8234 
   13310   0.95448754   -10358.224    281.68483    301.96444 
   13320   0.95385275   -10360.779    189.87973    302.41844 
   13330   0.95320086   -10363.989    27.905502    308.57006 
   13340   0.95254114   -10367.671    163.35227    297.96315 
   13350   0.95186977    -10371.84   -72.787354    302.11944 
   13360   0.95120015   -10376.094   -252.81699    301.68885 
   13370    0.9505458   -10380.541   -259.41351    296.67719 
   13380   0.94990932   -10385.137   -386.20148    304.53925 
   13390   0.94929759   -10389.963   -309.91245    299.79501 
   13400   0.94870932   -10395.229   -479.17341    301.03284 
   13410   0.94815509    -10400.57   -718.77726    303.66935 
   13420   0.94765149   -10406.153    -764.7083    301.42993 
   13430   0.94720234   -10412.124   -680.50602    300.74055 
   13440   0.94680136   -10417.992   -504.21017     297.2067 
   13450   0.94643737    -10423.44   -422.52119    293.74251 
   13460   0.94610465   -10428.004   -435.43456    292.99175 
   13470   0.94580479   -10431.628    -629.2851    294.31898 
   13480   0.94555124   -10434.994   -906.74807    300.17855 
   13490   0.94536192    -10437.71   -893.50234    289.56662 
   13500   0.94524003   -10439.526   -1080.1497    293.63826 
   13510   0.94519593   -10440.847   -1118.2505    295.98151 
   13520   0.94523221   -10441.644   -830.91953    286.66882 
   13530   0.94533111   -10441.283   -632.31672    286.60979 
   13540   0.94547803   -10439.771   -603.68479    290.37889 
   13550   0.94567143   -10437.476   -776.31887    297.21694 
   13560   0.94592182    -10435.19   -852.18989    297.84423 
   13570   0.94623544   -10433.207   -801.16633    293.00084 
   13580   0.94660932   -10430.763   -744.00506    290.43908 
   13590   0.94704013   -10427.788   -794.33461    295.50916 
   13600   0.94753046    -10424.82   -834.93158    303.14224 
   13610   0.94808205   -10422.532   -624.76746    298.98412 
   13620   0.94868134   -10420.503   -354.42805     291.8824 
   13630   0.94931004   -10418.174   -324.41969    296.02419 
   13640    0.9499643   -10415.931   -397.84259    301.95312 
   13650   0.95064771   -10414.058   -243.63237    296.51444 
   13660   0.95134982   -10412.135     19.67267    287.80151 
   13670   0.95205445    -10409.85   -107.21018    294.38436 
   13680   0.95276721   -10407.227   -234.95978    295.65791 
   13690   0.95349653   -10404.721   -141.98309    296.74084 
   13700   0.95423587    -10402.37    1.3895468    301.37884 
   13710   0.95497364   -10400.773    217.96862    301.08121 
   13720   0.95569399   -10399.768    487.94917    296.79249 
   13730   0.95637811   -10398.465    634.29332    296.29464 
   13740   0.95701466   -10397.347    653.74116    301.22535 
   13750   0.95760131   -10396.613    647.60218    303.76723 
   13760   0.95813845   -10396.732     705.1151    303.91373 
   13770   0.95862144   -10397.586    843.47512    303.53934 
   13780   0.95904161   -10398.773     877.9121    300.28828 
   13790   0.95939698   -10400.244    720.45107    302.06277 
   13800   0.95969818   -10402.212    523.49833    306.83452 
   13810   0.95995842   -10404.735     500.7757    305.99786 
   13820    0.9601806   -10408.374    548.50586    306.66876 
   13830   0.96036047   -10412.489    721.43925    303.89534 
   13840   0.96048696   -10417.167     816.9007    306.76426 
   13850   0.96055349    -10422.65    811.07714    306.46402 
   13860   0.96056077   -10428.464    732.31948    300.06568 
   13870   0.96051654   -10434.501    387.04962    306.55826 
   13880   0.96044109   -10440.806    380.35648    304.16721 
   13890   0.96033853   -10447.055    369.91941    300.12531 
   13900   0.96021007   -10452.991    292.47961    295.49201 
   13910   0.96006071   -10458.042    223.59055    295.82394 
   13920   0.95989556   -10462.385    84.641077     301.9187 
   13930   0.95972321   -10466.629    75.029975    301.68613 
   13940   0.95954619   -10470.968    53.417763    300.20941 
   13950   0.95936601   -10475.045   -1.5990793     299.5199 
   13960   0.95918672   -10478.721   -97.059503    298.11446 
   13970   0.95901646   -10482.227    -313.2959    299.82809 
   13980    0.9588673   -10485.306   -188.95403    291.91984 
   13990   0.95873364   -10487.687    -141.3856    295.61967 
   14000   0.95860973   -10489.691   -51.878101    298.69072 
   14010   0.95848996   -10491.314    47.080559    295.32299 
   14020   0.95836805   -10492.948    16.204686    302.95007 
   14030   0.95824227   -10494.534    375.11878    291.02645 
   14040   0.95809122   -10495.466    559.38664    285.52683 
   14050   0.95790145   -10495.028    442.55541    287.07301 
   14060   0.95768107   -10493.384    154.76048    289.60969 
   14070   0.95744919   -10490.744   -79.742918    295.02413 
   14080   0.95722295   -10487.756   -226.50488    297.91891 
   14090   0.95701331   -10484.724   -276.69696    295.45782 
   14100   0.95682509   -10481.518   -401.34184    298.90122 
   14110   0.95666564   -10478.234   -380.77324     294.0247 
   14120    0.9565357   -10474.766   -423.33379    295.35587 
   14130   0.95643684   -10471.052   -477.24567    299.42498 
   14140   0.95637214   -10467.226    -394.0419    294.21641 
   14150   0.95633732   -10463.135   -368.46039    294.30506 
   14160   0.95632998   -10458.495   -382.02922    298.12834 
   14170   0.95635032    -10453.93   -334.93376    299.72924 
   14180   0.95639424   -10449.264   -144.71049    294.02461 
   14190   0.95645056   -10444.462   -169.07694    297.38327 
   14200    0.9565186   -10439.299   -150.49637    297.70448 
   14210   0.95659836   -10434.308   -189.26808    301.66239 
   14220   0.95669082   -10429.426   -98.095392    297.53141 
   14230   0.95679095     -10424.7   -14.896193     295.6081 
   14240   0.95689143   -10419.633    150.74068    294.84125 
   14250   0.95698138   -10414.214    218.24257    295.83412 
   14260   0.95705682   -10408.615    47.228556    303.19905 
   14270   0.95712731   -10403.262   -22.030283    302.28968 
   14280   0.95720016    -10398.63    -126.0761    299.99317 
   14290   0.95728135   -10394.326    -98.73247    300.94846 
   14300   0.95736891   -10390.513    54.238345    301.57261 
   14310   0.95745223    -10387.26     216.0179    300.06361 
   14320   0.95751993   -10384.218    272.03797    303.90634 
   14330   0.95756585    -10381.71    489.64523    300.18165 
   14340   0.95757653   -10379.522    630.29859     295.4868 
   14350   0.95754375   -10377.439    351.82688    304.50631 
   14360   0.95748277   -10375.831    317.60893    305.12644 
   14370   0.95739752   -10375.066    501.16296    296.85142 
   14380   0.95727723   -10374.167    454.90242    296.20324 
   14390   0.95712525   -10373.185    114.09533    303.22669 
   14400   0.95696396   -10372.527   -127.36393    306.62315 
   14410   0.95681125   -10372.945   -237.93519    307.28035 
   14420   0.95667583   -10374.809    -326.7251    307.83429 
   14430   0.95656402   -10378.554   -336.92751    306.35578 
   14440   0.95647555   -10385.322   -108.73806    299.39438 
   14450   0.95639576   -10395.478    52.096433    294.67048 
   14460   0.95631326   -10409.272    9.8184824    294.56835 
   14470   0.95623103   -10425.888   -215.38869    295.57318 
   14480   0.95616422   -10443.274   -421.19842    293.16534 
   14490   0.95612819   -10458.945    -575.3827     293.7472 
   14500   0.95613337   -10472.239   -603.80923    299.85546 
   14510    0.9561806   -10483.152   -299.68423    291.78565 
   14520   0.95625094   -10491.169   -57.307838    284.49314 
   14530   0.95632768   -10496.521   -59.572922    283.59907 
   14540   0.95640944   -10499.833   -147.46165    289.09976 
   14550    0.9565016   -10502.097    -179.1782    291.71566 
   14560   0.95660651   -10503.321   -107.59944    291.37318 
   14570   0.95671901   -10503.648   0.60114368    292.67206 
   14580   0.95683191    -10503.41    39.717902     291.8815 
   14590   0.95694301   -10502.579   -60.655344    295.91745 
   14600   0.95705864   -10501.388   -160.13236    298.10325 
   14610   0.95718692   -10500.186   -265.47862    299.61778 
   14620   0.95733354   -10498.986   -134.05743    293.28001 
   14630    0.9574915   -10497.369   -56.842119    296.56027 
   14640   0.95765359   -10495.508    47.787166    296.48664 
   14650   0.95781362   -10493.447    49.889427    294.31374 
   14660   0.95797086   -10490.873    3.8326786    296.24844 
   14670   0.95812717   -10488.121    83.596911    295.53751 
   14680   0.95827778   -10484.857    199.73551    290.56381 
   14690   0.95841577   -10480.663    145.61716    291.39211 
   14700   0.95854456   -10475.839    -92.65356    302.27835 
   14710   0.95867786    -10470.84   -7.9601174    296.44743 
   14720   0.95881423   -10465.917   -71.453542    300.40283 
   14730   0.95895555   -10460.963   -111.55515    302.85738 
   14740   0.95910561   -10456.613   -121.94734    303.12069 
   14750   0.95926492   -10452.739   -58.618887    304.28754 
   14760   0.95942817    -10449.58    154.19339    299.02742 
   14770   0.95958315   -10446.796    45.315912    305.13671 
   14780   0.95973527   -10444.427   -102.85917    304.38951 
   14790   0.95989587    -10442.99   -214.55372    304.77198 
   14800   0.96007271   -10442.408   -245.09594     307.0915 
   14810   0.96026724   -10442.752   -78.580542    304.47057 
   14820    0.9604684   -10444.112    101.13245    306.60906 
   14830   0.96066296    -10446.33    290.65058    301.78385 
   14840   0.96083863   -10449.204    317.85004    299.18249 
   14850   0.96099239   -10452.702    243.67303    301.24055 
   14860   0.96112789    -10456.58    298.16613    297.82267 
   14870   0.96124182   -10460.717    404.31883    295.49168 
   14880   0.96132725   -10464.923    357.14738    300.72526 
   14890   0.96138605   -10469.899    349.10287    301.24292 
   14900   0.96141819   -10475.282     474.8005    296.43822 
   14910   0.96141709   -10481.308    354.28681    301.80909 
   14920   0.96138945   -10487.824    254.39194    300.17275 
   14930   0.96134267   -10494.776    227.26952    295.97827 
   14940   0.96127967   -10502.102    102.83133    300.97023 
   14950   0.96120752   -10509.885    106.77322    300.46438 
   14960   0.96112753   -10517.884    117.68619    294.67619 
   14970   0.96104031   -10525.318   -110.75013    295.77955 
   14980    0.9609601   -10532.296   -312.70689    299.00885 
   14990   0.96090103   -10539.118   -289.57585    299.06002 
   15000   0.96086125   -10545.298   -6.6485929     289.8342 
   15010   0.96082325   -10550.348    90.857713    290.23737 
   15020    0.9607783   -10553.892    120.23626    289.61475 
   15030   0.96072479   -10556.209    86.359793    289.54342 
   15040   0.96066461   -10557.412    1.5392739    293.12933 
   15050   0.96060357   -10558.043   -82.654687    294.56531 
   15060   0.96054781   -10558.207   -113.77763    295.97308 
   15070   0.96049968   -10558.114   -65.117298    295.16655 
   15080   0.96045609   -10557.597   -2.6403915      294.701 
   15090   0.96041192   -10556.782    131.44699    291.24767 
   15100   0.96035845    -10555.29    174.58555    290.56567 
   15110   0.96029167   -10552.989    186.76551    290.83899 
   15120   0.96021033    -10550.38    178.94174    295.34615 
   15130   0.96011481    -10547.53    200.29563    292.73494 
   15140   0.96000443   -10544.515    101.78385    294.89734 
   15150   0.95988495   -10541.336    23.111634    297.79446 
   15160   0.95976224   -10538.424    16.487561    298.50823 
   15170   0.95963657   -10535.725    100.02711    295.58104 
   15180   0.95950207   -10533.315    236.89106    294.47213 
   15190   0.95934834   -10530.735    382.84679    291.09251 
   15200   0.95916608    -10527.77    357.35038    288.82833 
   15210    0.9589562   -10524.163    179.95355    293.28205 
   15220   0.95873059   -10520.381   -27.554053    296.29682 
   15230    0.9585039    -10516.74   -158.64358     295.5562 
   15240   0.95828646   -10513.552    -284.6362    297.88204 
   15250   0.95808643    -10510.81   -334.55304    301.14251 
   15260   0.95790842   -10508.777   -338.60339    303.45377 
   15270   0.95775276   -10507.448   -249.85002    297.91693 
   15280   0.95761425   -10506.437   -201.17614    295.10375 
   15290   0.95748922   -10505.173   -199.79994    294.86955 
   15300   0.95737662   -10503.702   -100.41851     291.3321 
   15310   0.95727081   -10501.603   -80.928896    290.47492 
   15320   0.95716977   -10498.896   -100.32703    290.56223 
   15330   0.95707424   -10495.703   -60.998485    288.93724 
   15340   0.95698252   -10491.776   -96.757052    289.75029 
   15350   0.95689729   -10487.376   -247.54066    293.83237 
   15360   0.95682914    -10482.67   -408.85591    297.39486 
   15370   0.95678985   -10478.214   -477.75965    301.48961 
   15380   0.95678371   -10474.343   -308.67998    300.03419 
   15390   0.95679971   -10470.968   -17.702185     294.6167 
   15400   0.95681816   -10467.688    159.63573    294.64805 
   15410   0.95682458   -10464.292    340.57147    294.47895 
   15420   0.95680683   -10460.716    342.42358    295.68205 
   15430   0.95676401   -10457.132    256.18743    294.77557 
   15440    0.9567029   -10453.399    43.253617    297.24258 
   15450   0.95663691   -10449.768   -84.829479    296.23846 
   15460   0.95657618   -10446.027   -197.96061     294.4444 
   15470    0.9565304   -10442.291   -503.34778    300.77329 
   15480   0.95651994   -10438.717    -669.4191    299.60332 
   15490   0.95655959   -10435.828    -868.9437    303.08217 
   15500   0.95666362   -10433.835   -953.55704    307.40669 
   15510   0.95683836   -10432.528    -689.1285    298.68342 
   15520   0.95706938   -10431.669    -569.3087    298.03681 
   15530     0.957348   -10431.109   -626.30104    303.61946 
   15540   0.95767624   -10430.846   -440.78187    302.00688 
   15550   0.95804348   -10431.138   -194.05099    300.87489 
   15560   0.95843303   -10432.024   -63.485854    305.31471 
   15570   0.95883302   -10433.652    236.58804    301.75173 
   15580   0.95922317   -10435.437    520.25046    295.25939 
   15590   0.95958351   -10437.102    585.77992    296.72556 
   15600    0.9599079   -10438.531    524.57447    298.27998 
   15610   0.96019889   -10440.152    506.39483    299.20738 
   15620    0.9604571   -10441.968    571.80342    296.88529 
   15630    0.9606789   -10443.811    499.17291    300.10432 
   15640   0.96086632   -10445.933    535.31712    300.31174 
   15650   0.96101866   -10448.716    448.02609    303.81072 
   15660   0.96113982   -10452.302    454.39891    300.39925 
   15670   0.96123092   -10456.776    370.40178    296.38956 
   15680   0.96129734   -10462.394    145.29463    302.30556 
   15690    0.9613519   -10469.371    207.80633    295.28783 
   15700   0.96139227   -10477.573    326.49908    291.09112 
   15710   0.96140944   -10486.766     363.2637    292.87167 
   15720   0.96140082   -10497.554    268.48854    296.36243 
   15730   0.96137079   -10509.412    321.27459    291.28913 
   15740   0.96131738   -10521.822    232.17094    292.17687 
   15750    0.9612458   -10533.824    71.620746    293.24828 
   15760   0.96116703   -10544.529   -32.160716    288.60381 
   15770   0.96108988   -10553.437   -187.56654    287.21252 
   15780   0.96102557   -10560.411   -390.18191     292.6462 
   15790     0.960987    -10565.67   -422.44368     291.4815 
   15800   0.96097915   -10569.768   -454.01692    292.40955 
   15810    0.9610044   -10572.424   -453.17931    289.66947 
   15820   0.96106537   -10573.975   -579.05926    291.43994 
   15830   0.96116967   -10574.586   -539.63875    292.60534 
   15840   0.96131479   -10574.471    -247.3121    289.64842 
   15850   0.96148197   -10573.339    4.5999296    284.84295 
   15860   0.96165348   -10571.113    76.741707    284.24152 
   15870   0.96182324   -10567.602     79.02748    286.28455 
   15880   0.96198974   -10563.015    184.98069    284.97157 
   15890   0.96214667   -10557.461    228.70427    287.25793 
   15900   0.96228906   -10551.087    334.53005    288.06548 
   15910    0.9624102   -10544.096    350.04081    286.57365 
   15920   0.96250953   -10536.914    132.51575    294.43786 
   15930   0.96259898   -10529.872    128.03476     298.5811 
   15940   0.96267856   -10523.644    428.27888    297.88689 
   15950   0.96272812   -10518.414    719.47942    296.43099 
   15960   0.96272632   -10513.549     856.3233    289.51021 
   15970   0.96266346   -10508.655    654.09531    297.02153 
   15980   0.96254927   -10504.266    570.32987    300.86551 
   15990   0.96238977   -10500.487    601.13278    296.15026 
   16000   0.96218403   -10497.164    407.46367    301.68738 
   16010    0.9619437   -10494.645    150.39443    310.99107 
   16020    0.9616856   -10493.647    125.67291    310.38126 
   16030   0.96141217   -10493.918    327.68009    300.35877 
   16040   0.96111012   -10494.649    476.45335    296.32147 
   16050   0.96076731   -10495.337    501.15179    297.03611 
   16060   0.96038157   -10495.959    364.17641    296.84961 
   16070   0.95996262   -10496.315    91.565255    297.15683 
   16080   0.95952839   -10496.302    -35.25412    292.30445 
   16090   0.95908912   -10495.823   -154.53527     295.7441 
   16100   0.95865237   -10494.886   -172.34755     296.6197 
   16110    0.9582217   -10493.832   -298.49748    298.52186 
   16120   0.95780557   -10492.947   -435.86715    300.57726 
   16130   0.95741382   -10492.008   -429.54303    295.75666 
   16140     0.957049   -10491.048   -599.33967    303.55024 
   16150   0.95672069   -10490.403   -537.47499    301.47482 
   16160   0.95642653   -10490.144   -369.84776    293.47785 
   16170   0.95615686    -10489.62   -430.00712    298.38581 
   16180   0.95591419   -10488.875    -430.1731    294.34089 
   16190   0.95570146   -10487.747   -590.85968    294.57883 
   16200   0.95553008   -10486.042   -879.73074    300.77006 
   16210   0.95541959   -10484.208   -948.29825    298.33791 
   16220   0.95537866   -10482.269   -1023.0811    298.92523 
   16230    0.9554127    -10479.98   -1024.8646    299.12061 
   16240   0.95552324   -10477.814   -968.79583    302.59897 
   16250    0.9557055   -10475.587   -668.62059    298.74232 
   16260   0.95594035   -10473.062   -347.01221    294.88888 
   16270    0.9562065   -10470.027   -274.33476    300.84496 
   16280   0.95649583   -10466.402   -81.200063     296.3729 
   16290   0.95679716   -10462.262   -78.430339    295.56777 
   16300   0.95710989   -10457.132   -293.27649    302.76821 
   16310   0.95744744   -10451.836   -367.31223    307.58482 
   16320   0.95781637   -10447.049   -354.10323    306.13876 
   16330   0.95821711   -10442.941   -353.22772    307.44059 
   16340   0.95864785   -10439.731   -113.78458     305.7939 
   16350   0.95909245    -10437.01    172.23299     300.2183 
   16360   0.95953161   -10434.595    252.60754    298.70215 
   16370   0.95995893   -10432.151    141.82778    304.27533 
   16380   0.96037986    -10430.09    148.97698    306.93166 
   16390   0.96079396   -10428.797    300.76526    302.61959 
   16400   0.96119228   -10428.313    268.13048    307.01273 
   16410   0.96157382   -10428.795    378.90249    306.08129 
   16420   0.96193195   -10430.233    521.20284    298.79572 
   16430   0.96225738   -10432.095    439.94991    299.72355 
   16440   0.96255359   -10434.319    344.73414    303.03001 
   16450   0.96282677   -10437.469    317.22351    303.84206 
   16460   0.96307871   -10441.422    409.77104    298.35911 
   16470   0.96330458   -10445.838    305.91187    301.75696 
   16480      0.96351   -10451.443    182.61117    308.56156 
   16490   0.96370143   -10458.194    417.10496    298.68596 
   16500   0.96386578   -10465.495    498.99139    296.21156 
   16510   0.96399496   -10472.855    493.64987    298.49742 
   16520   0.96408783     -10480.3    582.09021    297.12252 
   16530   0.96413926   -10487.845    554.81203    300.83322 
   16540   0.96414961   -10495.697    586.90263    299.71666 
   16550   0.96411631   -10503.294    711.61482    296.82549 
   16560   0.96402983   -10510.291    833.67965    294.74868 
   16570    0.9638822   -10516.756    704.90173    298.65306 
   16580   0.96368002   -10522.851    639.88749     298.1783 
   16590   0.96342828   -10528.472    660.30362    294.24102 
   16600   0.96312744   -10533.283    477.34036    297.22612 
   16610   0.96278733   -10537.217    459.43595    290.06333 
   16620   0.96241181   -10539.936    310.52012    288.49204 
   16630   0.96200976   -10541.807    157.10929    293.60419 
   16640   0.96159036   -10542.702    290.45369      290.739 
   16650   0.96114692   -10542.895    374.40974    288.53277 
   16660   0.96067324   -10541.796    324.97251    285.51335 
   16670   0.96017417   -10539.549    44.819094     289.3911 
   16680   0.95966779   -10536.332   -217.12601    293.63323 
   16690   0.95917335   -10532.655   -361.73134    296.73256 
   16700   0.95870073   -10529.029   -271.21044    296.24641 
   16710   0.95824453   -10525.229   -57.950637    289.17035 
   16720   0.95779162   -10520.822   -41.711548    285.83914 
   16730   0.95734141   -10515.375   -332.49659    293.09093 
   16740   0.95691154   -10509.424   -446.60284    294.08878 
   16750   0.95651252   -10503.326   -494.55677    294.58165 
   16760   0.95614741   -10497.429   -475.23357    295.88995 
   16770   0.95581482   -10491.949   -361.06569    294.59233 
   16780   0.95550688   -10486.728   -175.75879     291.4142 
   16790   0.95521054   -10481.571   -2.0393799    284.75566 
   16800   0.95491541   -10475.996   -130.89242    290.56032 
   16810   0.95462754   -10470.354   -222.29148    293.36321 
   16820   0.95435507    -10465.05   -350.02401    296.66538 
   16830    0.9541065   -10460.483   -377.87451    295.95052 
   16840   0.95388473   -10456.498   -359.06352     294.2041 
   16850   0.95368893   -10452.863   -416.13376    297.73252 
   16860   0.95352153   -10449.693   -345.61228    294.57652 
   16870   0.95338003   -10446.677   -389.28729    295.68946 
   16880   0.95326678   -10443.411   -450.75939    294.22066 
   16890   0.95318632   -10440.625    -503.4625    300.56855 
   16900   0.95314061   -10438.138    -304.7929    296.07122 
   16910   0.95311679   -10435.474   -6.9558286    287.96462 
   16920   0.95309531   -10432.277    56.652619    290.24256 
   16930   0.95306999    -10428.18   0.39073575    293.11119 
   16940   0.95304462   -10423.918   -121.54845    299.06737 
   16950   0.95302687   -10419.559   -52.032187    293.20313 
   16960   0.95301516   -10415.177   -227.66221    297.60454 
   16970   0.95301976   -10410.866   -401.44088    303.08618 
   16980   0.95305233   -10407.184   -302.90141    299.80584 
   16990    0.9531078   -10403.847    -188.9051    296.63671 
   17000    0.9531784   -10400.383   -189.64344     295.3334 
   17010   0.95326468   -10396.724   -358.36605     299.6204 
   17020   0.95337767   -10393.218   -538.52338    305.06556 
   17030   0.95353035    -10390.57   -617.54839    309.82918 
   17040   0.95372791   -10389.582   -443.74023    308.81613 
   17050   0.95395904   -10389.521   -151.07056    300.35862 
   17060   0.95420364   -10389.965    55.870703    299.80932 
   17070    0.9544452   -10390.581    246.56504    300.91322 
   17080   0.95467031   -10391.629    347.60202    303.51977 
   17090   0.95487097   -10393.483    439.63555    303.98681 
   17100   0.95504091   -10395.921    491.65929    298.13241 
   17110   0.95517702   -10398.818    327.76496    302.74863 
   17120   0.95528957   -10402.698    154.27826    309.09502 
   17130   0.95538863    -10408.02    380.23511    300.40323 
   17140   0.95546034   -10414.086    665.09688    292.53129 
   17150   0.95548556   -10420.321    626.55982    296.15409 
   17160    0.9554645   -10426.685      556.224    294.47869 
   17170   0.95540381   -10433.408    322.36738    299.54138 
   17180   0.95531808   -10440.803    185.31783    299.99861 
   17190   0.95521731   -10448.918    184.67504    300.26644 
   17200   0.95510174   -10458.037    244.44457     301.8481 
   17210   0.95496704   -10467.654    342.15748    295.45832 
   17220   0.95480742   -10477.041    270.91517    292.92908 
   17230   0.95462751   -10485.661    99.883964    294.69266 
   17240   0.95443836   -10493.002    18.605422    290.87333 
   17250   0.95424755   -10498.788    -161.1063    290.16414 
   17260   0.95406773   -10503.252   -379.52258    288.98444 
   17270   0.95391442   -10506.113   -504.27159     287.5949 
   17280   0.95379664   -10507.598   -468.70133    287.01241 
   17290   0.95371247   -10507.614   -379.78056    286.78671 
   17300   0.95365615   -10506.579   -381.51631    288.57901 
   17310   0.95362762   -10504.635   -412.47091    285.82602 
   17320   0.95362984   -10501.716    -481.0927    290.27819 
   17330   0.95366599   -10498.346   -383.05466    293.61623 
   17340   0.95373168   -10495.043   -432.40666    298.66349 
   17350   0.95382926   -10492.253   -457.48063    300.28995 
   17360   0.95396055   -10490.003   -343.98063    298.58975 
   17370   0.95411703    -10487.96   -90.719493     292.6882 
   17380    0.9542832    -10485.81   -38.250256    294.15691 
   17390   0.95445265   -10483.403    99.010895     290.7589 
   17400   0.95461645   -10480.716    192.80044    289.69849 
   17410   0.95476873   -10477.266      18.4311    290.81041 
   17420   0.95492175    -10473.52   -289.36029    293.77484 
   17430   0.95509558    -10469.52   -343.21446    294.58938 
   17440   0.95529553   -10465.627   -278.55454    298.65282 
   17450   0.95551756    -10461.97   -220.98138    299.89919 
   17460   0.95575747   -10458.581     -129.029    296.12268 
   17470   0.95600935   -10455.485   -130.33143    297.99401 
   17480   0.95627179   -10452.535   -47.009799    296.60098 
   17490   0.95654001   -10449.662   -7.0125939    298.31608 
   17500   0.95681084    -10446.71    2.8428853    297.86636 
   17510   0.95708297   -10444.105    74.095853    300.90584 
   17520   0.95735003   -10441.678    329.01265    297.77684 
   17530   0.95759568   -10439.548    447.50181    299.21457 
   17540   0.95781138   -10437.586    322.00355    304.41453 
   17550     0.958004   -10436.198    306.05554    301.31525 
   17560   0.95817591   -10435.475    297.00926    300.77547 
   17570   0.95832689   -10434.989    322.87274    302.60879 
   17580   0.95845501   -10435.133    333.05618    305.20616 
   17590   0.95855939   -10436.081    350.17474    306.19391 
   17600   0.95863708   -10437.874    608.46333      296.382 
   17610   0.95867226   -10439.754    671.62802    295.19856 
   17620   0.95865944   -10441.648    472.80785    302.29119 
   17630   0.95860981   -10443.905    444.50316    299.33969 
   17640     0.958528   -10446.651    339.05406    295.61003 
   17650   0.95842143   -10449.467     129.0126      298.599 
   17660    0.9583029    -10452.69    128.38668     296.1865 
   17670   0.95817406   -10456.076    132.55266    296.47949 
   17680   0.95803486   -10459.961    54.435017    298.08607 
   17690   0.95788971    -10464.43    96.659924    297.87524 
   17700   0.95773614   -10469.868    170.01195    296.71856 
   17710   0.95756821   -10476.192    251.13482    294.87938 
   17720   0.95738184    -10483.93    144.50854    298.95759 
   17730   0.95718172   -10492.393    206.10236    292.30944 
   17740   0.95696671   -10501.633    61.870017    295.05248 
   17750   0.95674406   -10511.284    75.282784    291.47584 
   17760   0.95651421   -10520.364    126.68501    286.45294 
   17770   0.95627495   -10528.767   -93.556729    294.01842 
   17780   0.95603966    -10536.32   -217.61942    292.36805 
   17790    0.9558188   -10543.224    -313.9638    291.54666 
   17800   0.95561916   -10549.078   -357.24644    290.82471 
   17810   0.95544429   -10553.995   -374.89344    289.85258 
   17820   0.95529593   -10557.623   -377.29119    286.90998 
   17830   0.95517442   -10559.943   -331.52095    285.59085 
   17840   0.95507652   -10560.771    -260.7833    282.04137 
   17850   0.95499906   -10559.932   -453.68565    287.02711 
   17860   0.95495334   -10557.884   -549.48494    292.21067 
   17870   0.95494593   -10554.727   -387.35341    287.51155 
   17880   0.95496902   -10550.863   -417.16847    292.39626 
   17890   0.95502189   -10546.122   -284.75849    290.58152 
   17900   0.95509547   -10540.439   -28.922914    286.16321 
   17910   0.95517338   -10533.841  -0.46118093    292.00165 
   17920   0.95525146    -10526.41    37.721338    291.57987 
   17930   0.95532811   -10518.739    19.138076    292.08075 
   17940   0.95540464   -10510.942   -91.551914    296.11957 
   17950   0.95548771   -10503.613   -103.29223    294.61818 
   17960   0.95557959   -10497.082   -123.21832    293.44673 
   17970   0.95568201   -10490.978   -193.92619    294.22377 
   17980   0.95580005   -10485.588   -320.55071    300.87797 
   17990   0.95594116   -10481.425   -236.66572    301.06405 
   18000   0.95610108   -10478.137   -64.671689    296.34111 
   18010   0.95626844   -10475.761   -30.902772    301.99218 
   18020   0.95643801   -10473.736    180.85208    298.48158 
   18030   0.95659734   -10472.368    189.00345    302.00289 
   18040   0.95674474   -10471.636      18.2002    307.38324 
   18050   0.95689044   -10471.802    86.075423    302.45653 
   18060   0.95703114   -10472.727    222.34814    301.26136 
   18070    0.9571557    -10473.79     444.4631    299.57782 
   18080   0.95724937   -10475.095    564.85597    298.52637 
   18090   0.95730343   -10476.376    524.50289    299.23862 
   18100   0.95731955   -10477.939    378.50036    302.95787 
   18110   0.95730703   -10479.784    302.04322    302.07614 
   18120   0.95727178   -10482.342    288.61226    299.75114 
   18130   0.95721425   -10484.476    372.45387    292.66236 
   18140    0.9571308   -10486.538    189.28508    298.52349 
   18150   0.95703166    -10488.65    41.977953    300.62105 
   18160   0.95692762   -10490.836    57.860852    295.37684 
   18170   0.95681932   -10492.984   -2.0360748      294.393 
   18180   0.95670993   -10494.682   -49.825974    295.27125 
   18190   0.95660267    -10496.22   -91.549599    300.58156 
   18200   0.95649945   -10497.921    34.381334    295.78507 
   18210   0.95639438    -10499.45   -31.437447    292.94129 
   18220   0.95629201   -10500.534   -309.82446    299.21877 
   18230   0.95621027   -10501.817   -431.77053    302.44858 
   18240    0.9561584   -10503.713    -373.6447    300.35538 
   18250   0.95613355   -10506.185   -309.72562    301.44404 
   18260    0.9561313   -10509.505   -222.61588    300.51529 
   18270   0.95614595   -10513.373   -180.24818    295.46931 
   18280   0.95617568   -10517.617   -299.29922    296.42764 
   18290   0.95622742   -10521.669   -378.21802    292.19729 
   18300   0.95630925   -10526.148   -601.88324    297.76606 
   18310   0.95643455   -10530.899   -592.00245     295.0397 
   18320   0.95660519   -10536.002   -515.96982    291.17703 
   18330    0.9568159   -10540.869   -450.84215    288.30288 
   18340   0.95706299   -10545.238   -464.29039    289.50846 
   18350   0.95734656    -10549.15   -399.06916    291.49745 
   18360   0.95766145   -10552.591    -122.7461    284.45916 
   18370   0.95798991   -10554.912    38.922248    280.99778 
   18380    0.9583213   -10555.546   -101.73196    283.02593 
   18390   0.95866404   -10554.475   -280.23724    290.36271 
   18400   0.95902902   -10551.864   -121.34524    288.05158 
   18410   0.95940629    -10547.82    187.62518    285.35356 
   18420   0.95977503   -10541.885    326.25456     287.1895 
   18430   0.96012427   -10533.865    324.40218    289.83359 
   18440   0.96045279    -10524.13    371.08069    289.24784 
   18450   0.96075848   -10513.154    278.97799    296.57687 
   18460   0.96104556   -10501.599    319.62905    294.16909 
   18470   0.96131307   -10490.549    303.61125    296.06477 
   18480   0.96156141   -10480.359    225.80472    303.41805 
   18490   0.96179457   -10471.917    311.93651    302.50959 
   18500   0.96200661    -10465.09    506.65527    295.92035 
   18510   0.96218439   -10459.397    592.68417    298.98633 
   18520   0.96232009   -10454.453    666.88978    300.33181 
   18530   0.96240698   -10450.252    881.69469    295.73945 
   18540   0.96243065    -10446.67    960.63849    297.86932 
   18550     0.962383   -10443.123    985.20216    295.89356 
   18560    0.9622635   -10440.092    773.80731    300.81722 
   18570   0.96208412   -10437.196    702.45464    298.00202 
   18580   0.96185274   -10434.775    477.34116    301.94713 
   18590   0.96158328   -10432.796    217.49915    309.60479 
   18600   0.96129346   -10432.224    137.67776    310.46671 
   18610   0.96098928   -10433.067    231.12927    305.52514 
   18620    0.9606658   -10434.953    264.87021    302.19406 
   18630   0.96031983   -10437.248    212.21203    300.59915 
   18640   0.95995526    -10439.82    62.432076    299.34136 
   18650    0.9595827   -10442.712   -147.89847    303.78554 
   18660   0.95921602   -10446.112   -164.17574    300.82089 
   18670    0.9588586   -10450.019   -175.71622     299.0241 
   18680   0.95851174   -10454.144   -345.51971    302.45357 
   18690   0.95818703   -10459.013   -558.39793    305.49693 
   18700   0.95789834   -10464.498   -454.83113    297.10477 
   18710   0.95764123   -10470.144   -338.43534    295.53199 
   18720   0.95740707   -10475.674    -329.0879    299.33994 
   18730   0.95719488   -10481.268   -299.57819    296.55054 
   18740   0.95700291   -10486.653   -236.75971    291.65243 
   18750    0.9568275   -10491.369   -282.00818    293.26695 
   18760   0.95667133   -10495.632   -378.57289    294.57658 
   18770   0.95654129   -10499.278   -413.19345    290.55381 
   18780   0.95644082   -10501.895   -444.66382    285.44673 
   18790   0.95637393   -10503.354   -689.43487     294.4978 
   18800   0.95635575   -10504.097   -793.71332    297.82191 
   18810    0.9563944   -10505.022   -646.96142    292.28991 
   18820   0.95648246   -10505.476   -593.00724    291.72372 
   18830   0.95661572   -10505.181   -590.78078    292.22934 
   18840   0.95679409    -10504.07   -544.05656    292.71481 
   18850   0.95701434   -10502.319    -453.8845    294.68798 
   18860   0.95726898   -10499.598   -192.42169     292.8017 
   18870   0.95754056   -10495.873    78.836577    288.89036 
   18880   0.95781002   -10490.481    203.74619    292.04644 
   18890   0.95806751   -10483.125     224.7374    295.02813 
   18900   0.95831167   -10473.913    136.41545    299.57426 
   18910   0.95854731   -10463.002    187.06232     300.9536 
   18920    0.9587692   -10450.969    569.41408    294.15094 
   18930   0.95895361   -10438.189    674.12345    302.04173 
   18940   0.95908868   -10425.272    832.64766    300.60336 
   18950   0.95916431   -10413.931     911.5948    298.91669 
   18960   0.95917473   -10404.036    767.86936    299.70775 
   18970   0.95912894   -10395.928    581.74052    302.99456 
   18980   0.95903847   -10389.591    545.54618    303.45337 
   18990   0.95890704   -10385.117    447.97192    305.91878 
   19000   0.95874101   -10382.222    302.07627     306.5606 
   19010   0.95855154   -10380.584    113.38846    303.55807 
   19020   0.95835235   -10380.265    -132.9037    314.66924 
   19030   0.95815836   -10381.551     -30.1138    310.76601 
   19040   0.95796471   -10384.143    201.04826    298.97297 
   19050   0.95775564   -10386.797    272.45224    299.97065 
   19060    0.9575236   -10389.358    357.41249    300.45556 
   19070   0.95726467   -10392.406    173.43393    306.94556 
   19080   0.95699016   -10396.114   -25.527473    308.50142 
   19090   0.95671401   -10400.821   -70.901561     307.3394 
   19100   0.95643996   -10406.579    -69.27126    307.44432 
   19110   0.95616896   -10413.282   -165.98331    307.25087 
   19120   0.95590782   -10420.662   -304.99676    304.67783 
   19130    0.9556663   -10428.146   -342.06523    299.97978 
   19140   0.95544809   -10435.433   -376.41207    296.25064 
   19150   0.95525652   -10441.611   -488.71538     289.7659 
   19160   0.95510127   -10446.533   -820.28215    296.51463 
   19170   0.95500272    -10451.11   -908.74334    304.21291 
   19180   0.95496912    -10456.05   -791.07284    304.19738 
   19190   0.95499305   -10460.854   -579.60828    299.24314 
   19200   0.95506014   -10465.771   -321.15565    298.28852 
   19210   0.95515007   -10469.889    136.82925    283.97148 
   19220   0.95523421    -10472.37     180.8541    285.80813 
   19230    0.9553062   -10473.519   -37.950307     295.8998 
   19240   0.95538092   -10474.168   -200.13438     291.9995 
   19250   0.95547217   -10474.261   -411.72232     292.5649 
   19260   0.95559458   -10473.516   -543.53613    295.97433 
   19270   0.95575779   -10472.694   -570.68086    298.88659 
   19280   0.95596371   -10471.641   -436.25141    293.00749 
   19290   0.95620489   -10470.269   -350.98026    290.74935 
   19300    0.9564744    -10468.13   -258.23497    294.65658 
   19310   0.95676492    -10465.55   -86.837295    292.10594 
   19320   0.95706658   -10462.197   -116.27553    291.62294 
   19330   0.95738016   -10458.152   -215.53392    293.24001 
   19340   0.95771369   -10453.484   -426.59987    299.64344 
   19350   0.95808141   -10448.758   -567.54537    305.36444 
   19360   0.95849217   -10444.497   -339.68147     303.5845 
   19370   0.95893089   -10440.959    85.027294    298.88555 
   19380   0.95936892   -10437.529    311.73167    297.78862 
   19390   0.95978941   -10433.902    302.62786    299.41415 
   19400   0.96019236   -10430.286    160.62783    305.33348 
   19410   0.96058572   -10427.153    205.39117    302.39154 
   19420    0.9609678   -10424.253    243.62049    301.03611 
   19430   0.96133685   -10421.524    63.607109    307.13892 
   19440   0.96170411   -10419.481    -84.44702    310.31404 
   19450   0.96208015   -10419.007   -145.35465    317.34088 
   19460   0.96246644   -10420.687    268.27816    310.64584 
   19470   0.96283712   -10424.387    645.07325      301.356 
   19480   0.96316605   -10429.451    634.26431      298.652 
   19490   0.96345111   -10436.241    551.65726    302.39905 
   19500   0.96369599   -10444.978    637.31067    298.22012 
   19510   0.96389653   -10455.552    650.23891    297.57398 
   19520   0.96404958   -10467.038    728.39721    295.27916 
   19530   0.96415057   -10479.035    710.48391    293.57395 
   19540   0.96420138   -10490.679    453.00284    295.69119 
   19550   0.96421922   -10501.565      165.127    297.58259 
   19560    0.9642241    -10511.37    21.325905     300.0014 
   19570   0.96422687   -10520.244   -60.592217     299.6259 
   19580    0.9642331    -10528.06   -10.816423    295.67102 
   19590    0.9642404    -10534.47     12.61445    297.42389 
   19600   0.96424604   -10539.785    146.51097    291.29302 
   19610   0.96424172   -10543.646    228.26734    287.41134 
   19620   0.96422169   -10545.929    135.47278    289.37829 
   19630   0.96419246   -10547.392   -129.18843    298.51916 
   19640    0.9641705   -10548.346   -182.58556    297.39596 
   19650   0.96416185    -10549.41   -187.86367    299.71076 
   19660   0.96416599   -10550.617   -80.044523    300.46838 
   19670    0.9641752    -10551.85    155.61266    292.42564 
   19680   0.96417412   -10552.617    288.89866    289.44151 
   19690   0.96415219   -10552.391    290.29452    293.85731 
   19700   0.96410866    -10551.65    240.84054    295.44323 
   19710   0.96404703   -10550.294    226.30785    289.01654 
   19720   0.96396976   -10548.462    57.011365    292.07536 
   19730   0.96388682   -10545.596   -14.916253    295.39055 
   19740   0.96380288   -10542.239    145.48743    292.01968 
   19750   0.96370817   -10538.143    260.21102    289.31695 
   19760   0.96359542   -10532.737    93.251755    295.59994 
   19770   0.96347453   -10527.016    -115.2888    305.37311 
   19780   0.96335872   -10521.679   -19.075061     300.4244 
   19790   0.96324319   -10516.948    179.63466    298.62257 
   19800   0.96311263   -10511.855    483.36408    292.47931 
   19810   0.96294656   -10506.467    642.81536    292.15917 
   19820   0.96273143   -10500.188    767.22785    287.14439 
   19830   0.96246046   -10492.853    584.30751    289.36207 
   19840   0.96214465   -10484.466     270.3878    298.14416 
   19850   0.96180574   -10476.228    59.422545    303.83326 
   19860   0.96145761   -10468.996    202.76937    297.57371 
   19870   0.96109153   -10462.572    473.99666    291.99381 
   19880   0.96069039   -10456.414    398.76344    296.28922 
   19890   0.96025677    -10450.55    298.19142    291.78356 
   19900   0.95980065   -10445.143   -6.8172424    299.30266 
   19910   0.95934011   -10440.254   -32.028851    297.25853 
   19920   0.95887968     -10436.3   -60.996884     296.0663 
   19930     0.958421   -10432.616   -155.91169    297.82915 
   19940   0.95797134   -10429.562    -229.9302    297.29712 
   19950   0.95753553   -10426.839   -184.21091    293.83382 
   19960   0.95711167   -10424.126   -198.67992    294.52166 
   19970   0.95670103    -10421.41   -371.70396    299.46308 
   19980   0.95631577   -10419.134   -548.62074    302.23533 
   19990   0.95596809   -10417.326    -537.3243    298.16836 
   20000   0.95565871   -10415.847   -502.18112    299.67122 
   20010   0.95538471   -10414.602    -461.7606    300.93301 
   20020   0.95514463   -10413.735   -565.77216    301.18479 
   20030   0.95494533    -10413.59   -703.98217    303.93058 
   20040   0.95479545   -10413.872   -596.49318    300.84325 
   20050   0.95468819   -10414.531   -393.79937    297.55392 
   20060   0.95461019   -10415.228   -304.30909    299.14465 
   20070   0.95455495    -10416.14   -308.18154    299.43889 
   20080   0.95452233   -10417.061    -326.0903    297.34787 
   20090   0.95451592   -10417.936   -615.96137    299.47094 
   20100   0.95455516   -10418.886    -935.3539    298.60925 
   20110   0.95466341   -10420.125   -1143.6053    304.21361 
   20120   0.95485382   -10422.235    -950.4238    304.75662 
   20130   0.95511425    -10425.26   -563.45802    299.80301 
   20140   0.95541829   -10428.536   -265.28739    296.08635 
   20150   0.95574479   -10431.908   -131.45191    294.83065 
   20160   0.95608283   -10434.875   -47.110984    291.75425 
   20170   0.95642753   -10437.724   -146.89421    293.71983 
   20180    0.9567854   -10440.197   -357.12137    298.94677 
   20190   0.95717094   -10443.139   -485.60163    301.82139 
   20200   0.95759366   -10446.837   -458.46984    300.06907 
   20210   0.95805301   -10451.457   -457.47393    300.05133 
   20220   0.95854846   -10457.023    -475.4948    303.17818 
   20230   0.95907932   -10463.977   -257.72249    297.47245 
   20240   0.95963183   -10471.658   -50.415521       292.49 
   20250   0.96019148    -10479.63   -23.172228    293.99472 
   20260   0.96075487    -10488.09    18.188712    295.56285 
   20270   0.96131786   -10496.648    198.06514    292.61559 
   20280   0.96186934   -10504.981    217.59108    292.70298 
   20290   0.96240639   -10513.213    192.91471    295.77332 
   20300   0.96292919   -10521.048    370.56462    291.49195 
   20310   0.96342561   -10527.882    607.60535    287.40236 
   20320   0.96387994   -10533.456    583.25978     291.3012 
   20330   0.96429295   -10538.251    374.04131    295.74571 
   20340   0.96467754   -10542.612    365.20101    293.82254 
   20350   0.96503632   -10546.437    350.15286    294.49572 
   20360    0.9653698   -10549.459    314.33039    291.69146 
   20370   0.96568236   -10551.812    60.168072    297.67235 
   20380   0.96598919   -10554.146    3.0583323    298.81053 
   20390    0.9662951   -10556.077    188.35494    291.26751 
   20400   0.96658999   -10557.598    134.46369    293.81145 
   20410   0.96687548   -10558.412    37.075934    295.26974 
   20420   0.96715782   -10558.901    53.576877    296.88855 
   20430   0.96743535   -10559.298    275.66951    294.91931 
   20440   0.96769209   -10559.138    594.19845    290.03427 
   20450   0.96790785   -10558.375    573.42116    298.83211 
   20460   0.96807885   -10557.505     860.0218     295.6765 
   20470   0.96818583    -10556.27     1319.314    285.17041 
   20480   0.96819724   -10553.511     1518.064    284.11205 
   20490   0.96809793   -10549.165    1458.2937     290.8256 
   20500   0.96789143   -10543.247    1276.8936     295.6402 
   20510   0.96759038   -10536.034    1152.5951    292.37923 
   20520   0.96720478   -10527.369    982.90058    297.53052 
   20530    0.9667454   -10517.183    913.13993    300.56577 
   20540   0.96621786   -10505.938    879.79273    300.72098 
   20550   0.96562664   -10494.166    657.86099    302.05379 
   20560   0.96498801    -10482.54    295.50758    309.84359 
   20570   0.96432556    -10471.99    236.30586    307.72837 
   20580   0.96364614   -10463.709    308.56688     305.3949 
   20590   0.96294318   -10457.286    585.33595    296.98561 
   20600   0.96220059   -10452.157    552.35108     299.2877 
   20610   0.96141918   -10448.018    391.92378    301.89875 
   20620   0.96061027   -10444.745     350.0499    296.38194 
   20630   0.95978025   -10442.413    70.804043    301.32892 
   20640   0.95894754   -10440.781   -141.01513    301.39549 
   20650   0.95812746    -10439.79   -108.71537    296.39966 
   20660    0.9573197   -10438.976   -46.685632    290.20635 
   20670   0.95652192   -10437.577   -255.48728    292.65393 
   20680   0.95574915   -10435.637   -680.60685    299.59288 
   20690   0.95502929   -10433.838   -866.77165    298.35799 
   20700   0.95437741   -10432.352   -929.79696     297.1345 
   20710   0.95379747   -10430.849   -867.37581    297.80867 
   20720   0.95328474   -10429.238   -694.76043    293.99371 
   20730    0.9528271   -10427.415   -553.76426    290.50919 
   20740   0.95241446   -10425.078   -605.34858     296.2925 
   20750   0.95204847   -10422.325   -602.27212    298.75701 
   20760   0.95172897   -10419.533   -532.35134    298.39732 
   20770   0.95145113   -10417.045   -523.72435    299.11479 
   20780   0.95121396   -10414.567   -585.73337    299.55379 
   20790   0.95102138   -10412.154   -647.89442    300.61872 
   20800    0.9508778   -10410.126    -676.1415    298.98626 
   20810   0.95078473   -10408.249   -652.66375    298.75299 
   20820   0.95073956   -10406.448   -544.21849    301.46079 
   20830   0.95073339   -10404.863   -290.79474    299.49729 
   20840   0.95074828   -10403.347   -30.460968    294.79699 
   20850   0.95076722   -10401.787   -58.572994    297.64192 
   20860   0.95079076    -10399.83   -141.60192    297.33844 
   20870     0.950824   -10397.771   -70.704096    295.91894 
   20880   0.95086135   -10395.312    139.68507    293.99817 
   20890   0.95088919   -10392.111    201.10247    295.55324 
   20900   0.95090281   -10388.428    135.82515    299.93818 
   20910   0.95090586   -10384.405    153.13087    296.36066 
   20920   0.95089831   -10379.856    93.589024    296.33814 
   20930   0.95088539   -10374.966   -181.94795    303.53085 
   20940   0.95088499   -10370.025   -337.55813    304.38788 
   20950   0.95090906   -10365.727   -378.15086    303.59767 
   20960   0.95096079   -10361.507   -366.92709    303.14834 
   20970   0.95104068   -10357.792   -543.18328    310.99709 
   20980   0.95115825   -10354.971   -495.83259    308.31181 
   20990   0.95131184   -10353.397   -343.63436    303.51994 
   21000   0.95149051   -10352.563   -249.79997    305.49052 
   21010   0.95168721   -10352.362   -238.52171    308.04264 
   21020   0.95190066    -10353.51   -221.74254    307.31214 
   21030   0.95212952   -10355.876   -117.73887    300.82648 
   21040   0.95236746   -10359.354     -129.643    305.94951 
   21050   0.95261235   -10363.991    82.096672    302.15499 
   21060   0.95285145   -10369.836     203.3329    299.55626 
   21070   0.95307649   -10376.983    74.043346    305.33815 
   21080   0.95329523   -10385.725   -8.2853862    302.05983 
   21090   0.95351506   -10395.682    -156.8702    298.57689 
   21100   0.95374645   -10406.271   -367.73049    301.79238 
   21110   0.95400228   -10417.129   -298.04502    297.57549 
   21120   0.95428019   -10427.395    -281.9263    294.91724 
   21130   0.95457946   -10436.671   -389.61478    297.11527 
   21140   0.95490427   -10444.382   -177.76754    291.79146 
   21150   0.95524198   -10450.565    25.566234    288.16882 
   21160   0.95557863   -10454.723   -20.871988    288.93025 
   21170   0.95591754    -10457.94   -320.66663    296.87622 
   21180    0.9562783   -10460.279   -475.02475    295.16901 
   21190   0.95667401   -10462.399   -606.63345    299.51854 
   21200   0.95711129   -10464.156   -432.58619    295.88727 
   21210   0.95758015   -10465.887   -313.57662    297.69917 
   21220     0.958071   -10467.611   -210.97511     300.7795 
   21230   0.95857508   -10469.116    89.392321    293.51657 
   21240    0.9590733   -10470.224    185.79308    294.50924 
   21250   0.95955657   -10470.882    214.88757    296.59023 
   21260   0.96002292   -10471.449    203.83707    299.54274 
   21270   0.96047179    -10472.06    354.73811    295.81685 
   21280    0.9608938   -10472.099    503.03706    292.32008 
   21290   0.96127873   -10471.864    467.16175    301.29516 
   21300   0.96162609   -10471.679    623.00295    300.92321 
   21310   0.96192713    -10471.89    755.84574    298.91429 
   21320   0.96217192   -10472.207    857.19734     296.1643 
   21330   0.96235358   -10472.581     880.2841    296.87167 
   21340   0.96246973   -10472.604    906.26857    294.07179 
   21350   0.96252016   -10472.367     794.7436    292.16496 
   21360   0.96251321   -10471.553    488.28055    298.11965 
   21370   0.96247063   -10470.313    117.02056    300.46874 
   21380   0.96241935   -10469.346   -216.66548    303.94605 
   21390   0.96238263   -10469.091   -313.71194    306.45259 
   21400   0.96236818   -10469.699   -225.59003    304.92657 
   21410   0.96237043   -10471.309   -134.80711    303.83105 
   21420   0.96238139   -10474.039    115.20047    296.99976 
   21430   0.96238494   -10477.178    280.11904    294.58926 
   21440   0.96236861    -10480.51    313.69524    293.37569 
   21450   0.96232971   -10484.156    264.87222    294.52111 
   21460   0.96227148   -10487.986    202.61571    296.95439 
   21470   0.96219747   -10492.211    251.57324    295.90241 
   21480   0.96210443   -10496.547    398.75303    291.84894 
   21490   0.96198335   -10500.925    335.92237    294.86926 
   21500   0.96183802   -10505.561    138.95769    298.07002 
   21510   0.96168127   -10510.379    123.10754    291.70631 
   21520   0.96151678    -10515.01    28.668947    292.73858 
   21530   0.96135062   -10519.284   -114.58231    294.92218 
   21540   0.96119276   -10523.382   -223.43131    295.86031 
   21550   0.96105142   -10527.793   -324.63761    301.18015 
   21560   0.96093203   -10532.533   -197.09917    299.54765 
   21570    0.9608273   -10537.876   -35.047501    294.84742 
   21580   0.96072527   -10542.655    136.31131    286.90831 
   21590   0.96061476   -10546.643    138.24874      289.132 
   21600    0.9604934   -10549.477    188.10453    289.09535 
   21610    0.9603583   -10551.485    227.96682    289.41076 
   21620   0.96020668   -10552.372    214.46223    288.66077 
   21630   0.96003992   -10552.384    82.479309    291.66507 
   21640   0.95986755   -10551.585   -129.15047    295.63494 
   21650   0.95970409   -10550.323   -227.00616     297.9608 
   21660   0.95955558   -10548.919   -44.572531    294.53188 
   21670   0.95941031   -10547.008    152.15239    290.37002 
   21680   0.95925514   -10544.256    107.21251    296.86024 
   21690   0.95909148   -10540.851    78.139436    297.09833 
   21700   0.95892249   -10537.081    49.756414    295.18994 
   21710   0.95874951   -10532.935    78.890509    298.09028 
   21720    0.9585692   -10527.933    276.62501    295.90907 
   21730   0.95836926   -10522.505    349.75799    296.09094 
   21740   0.95814379   -10516.387    362.78898    292.30737 
   21750   0.95789291   -10509.235    237.73202    292.17234 
   21760     0.957625   -10500.966    31.852492    300.80967 
   21770   0.95735309   -10492.278    17.857349    298.12078 
   21780   0.95708018   -10483.851    4.4312606     295.7904 
   21790   0.95680731   -10475.189   -80.066075    294.95404 
   21800   0.95654138   -10466.708    -239.5252    296.71072 
   21810   0.95629123   -10458.405    -141.4684    296.56365 
   21820   0.95605095    -10450.88    45.912738    295.25452 
   21830   0.95580739   -10443.851    178.04378    290.17835 
   21840   0.95555273   -10437.213     16.81033    294.79578 
   21850    0.9552972    -10431.05   -271.65048    301.44307 
   21860   0.95506007   -10425.881   -377.90743    300.63268 
   21870   0.95484954   -10421.822   -269.95137    294.77989 
   21880   0.95465959   -10418.214   -223.35457    294.44794 
   21890   0.95448701    -10414.73   -362.09128    302.56824 
   21900    0.9543398   -10411.917   -373.22851    303.66125 
   21910   0.95421954   -10410.262   -278.18874    302.16947 
   21920   0.95411981   -10409.173   -171.57824    303.12895 
   21930    0.9540318   -10408.947    3.1365332    300.86563 
   21940   0.95394345   -10408.729    179.22947    295.14961 
   21950   0.95384287   -10408.657    176.89875    299.08682 
   21960   0.95372859   -10408.556    160.13734    301.89823 
   21970    0.9536025   -10408.756    123.24126    300.66306 
   21980   0.95346711   -10409.453    111.98085    300.66449 
   21990   0.95332227   -10410.301    246.50197    295.19564 
   22000   0.95316023   -10410.923    253.40555    294.60449 
   22010   0.95297939   -10411.219    194.39025    295.14374 
   22020   0.95278404   -10410.991    99.644604    296.21446 
   22030   0.95258051   -10410.748    47.285141    298.98976 
   22040   0.95237209   -10410.385     135.4568    293.63872 
   22050   0.95215539   -10409.567    9.5901003    295.55511 
   22060    0.9519373   -10408.532   -104.64535    301.89997 
   22070   0.95172523   -10407.795   -41.118868    299.55094 
   22080   0.95151659   -10407.264   -66.316903    300.59741 
   22090   0.95131332   -10406.932   -241.59873    303.23291 
   22100   0.95112618   -10407.259   -264.14006    305.08191 
   22110   0.95095644   -10408.235    -21.98289    298.79613 
   22120   0.95078877   -10409.622     157.1147    293.16663 
   22130   0.95061123   -10410.693    17.937888    292.82688 
   22140   0.95043372   -10411.271   -357.53904    297.17038 
   22150   0.95028173   -10411.858    -653.5824    304.50388 
   22160    0.9501752   -10413.286   -591.62433    300.36378 
   22170   0.95011189   -10415.264   -434.05976    294.18113 
   22180   0.95008094   -10417.193   -336.07324    292.19122 
   22190   0.95007489   -10418.939    -278.8827     294.2538 
   22200   0.95008804   -10420.172   -49.584456     290.5893 
   22210   0.95010598   -10421.175     33.34937    294.96492 
   22220   0.95012147   -10421.737    80.984613    292.25966 
   22230   0.95013214   -10421.393     2.281022    290.12731 
   22240   0.95014361   -10420.531   -222.19032    298.29974 
   22250   0.95016966   -10419.035    -221.9943    295.54135 
   22260   0.95021244   -10417.488   -188.44028    297.48044 
   22270   0.95026822   -10415.458   -53.577402    296.18655 
   22280   0.95032935   -10413.239    -40.53736    297.70363 
   22290   0.95039373   -10410.573    -53.02997    296.79349 
   22300   0.95046223   -10407.732   -56.781651    300.35621 
   22310   0.95053525   -10404.972   -64.799718    303.93995 
   22320   0.95061282   -10402.454    19.586119    301.44699 
   22330   0.95068967   -10400.456    64.794471    302.44696 
   22340   0.95076157   -10398.843    164.78336    300.05902 
   22350   0.95082186   -10397.253    195.48809    296.66406 
   22360   0.95087099   -10395.856   -167.75282    306.65528 
   22370   0.95093093   -10395.125   -364.08471    309.21111 
   22380   0.95101658   -10395.509   -285.51217    303.41508 
   22390   0.95112407   -10396.784   -211.45586    304.26362 
   22400   0.95124738   -10398.958   -99.306371    300.54437 
   22410   0.95137915    -10401.35   -16.877878    296.46053 
   22420    0.9515131   -10403.867   0.83445664    298.93782 
   22430   0.95164758   -10407.047   -19.762941    305.29375 
   22440   0.95178244   -10410.827    149.79071     299.0977 
   22450   0.95190848    -10415.25    142.10855    296.98986 
   22460    0.9520259   -10419.961   -25.042226    299.01778 
   22470   0.95214439   -10425.045   -7.0570208    295.00595 
   22480   0.95226522   -10429.988   -98.539494    298.49054 
   22490    0.9523929   -10435.168   -76.529009    298.91534 
   22500   0.95252614   -10440.548    80.413347    292.26639 
   22510   0.95265602   -10445.657    39.660274    291.67138 
   22520    0.9527838   -10450.358   -52.701222    295.25668 
   22530   0.95291554   -10454.622   -75.271259    294.96041 
   22540   0.95305425   -10458.841   -161.53307    295.47483 
   22550   0.95320456   -10462.778   -108.76378    294.08153 
   22560   0.95336444   -10466.363   -65.503238    293.41069 
   22570   0.95353044   -10469.418   -61.935274    291.02499 
   22580   0.95370293   -10471.943   -179.52788    294.83336 
   22590   0.95388965   -10474.376   -312.62509    298.06699 
   22600   0.95410133    -10476.91   -492.96537    300.00474 
   22610   0.95434923   -10480.257   -436.93159    300.92628 
   22620   0.95462921   -10483.725   -116.84036    294.04124 
   22630   0.95492143   -10487.425    -36.82501    299.20377 
   22640   0.95521791   -10491.316    71.646556    294.28301 
   22650   0.95551271   -10495.247    31.177515    293.34183 
   22660   0.95580753   -10499.319   -116.95174    300.24785 
   22670   0.95611182   -10503.904   -123.68827     296.4057 
   22680   0.95642757   -10508.997   -108.84521    293.44123 
   22690   0.95675392   -10514.266    -137.0196    296.53978 
   22700   0.95709175   -10520.226   -63.748674    297.94463 
   22710   0.95743514   -10526.623    222.39202    293.93351 
   22720   0.95776439   -10533.244     536.6954    289.72641 
   22730   0.95805754   -10539.548    666.36787    288.92588 
   22740   0.95830478   -10545.445    579.24958    289.10843 
   22750   0.95851144   -10551.093    377.37296    294.99324 
   22760   0.95868971   -10556.501    429.59182    290.18677 
   22770   0.95883884   -10561.494    368.76029    289.74546 
   22780   0.95896282   -10566.183    160.65743    292.61415 
   22790     0.959074   -10570.293    216.12713    287.65361 
   22800   0.95916988    -10573.55    355.14146    285.90349 
   22810   0.95924096   -10575.718    375.21739    285.65036 
   22820   0.95928625   -10576.531    177.22853    287.78134 
   22830   0.95931965   -10576.421   -180.37684    297.52241 
   22840   0.95936436     -10575.9   -282.64898    297.94443 
   22850   0.95943011    -10575.25    -261.4245    294.66353 
   22860   0.95951544   -10574.363    -175.6893    294.17106 
   22870    0.9596143   -10572.682   -48.391642    292.37718 
   22880   0.95971685   -10570.017    132.66847    289.02944 
   22890   0.95981156   -10565.899    145.73298    290.99673 
   22900   0.95989654   -10559.954    86.011309    293.46418 
   22910   0.95997553    -10552.76    78.683768     294.9837 
   22920   0.96004884   -10544.076    165.14753    292.69983 
   22930   0.96011129   -10534.317    162.77732    297.59178 
   22940   0.96016153   -10523.713    209.42256    301.20084 
   22950   0.96019526    -10513.57    494.72356      293.334 
   22960   0.96019423    -10503.48    630.04739    289.82182 
   22970   0.96014859   -10493.411    470.51602    292.48849 
   22980   0.96006848   -10483.754    146.07951    300.47285 
   22990   0.95997599   -10475.502   -78.148893    306.38123 
   23000    0.9598862   -10469.057    46.155496    303.13235 
   23010   0.95979197   -10464.304    257.31978    298.93619 
   23020   0.95967829   -10460.415    358.31254    300.68321 
   23030   0.95953739   -10457.432    354.63719    303.85582 
   23040   0.95936655   -10455.008    612.86549    293.03902 
   23050   0.95915139   -10452.768    535.86588    299.72961 
   23060   0.95889434   -10450.617    363.80855    303.35609 
   23070   0.95860701   -10449.105    348.31718    298.71488 
   23080   0.95829125   -10447.936    354.28696    298.99728 
   23090   0.95794537   -10446.818    413.64435    297.57721 
   23100   0.95756577   -10445.618    417.63304     295.6192 
   23110   0.95715376   -10444.505    140.98021    302.73971 
   23120   0.95672646    -10443.56   -106.49835     303.0712 
   23130    0.9563024   -10443.234   -231.70822    303.25962 
   23140     0.955889   -10443.606   -15.886195    300.02309 
   23150   0.95547175   -10444.143    349.23361    291.46113 
   23160   0.95502742   -10444.278    316.66061    291.58943 
   23170   0.95455641   -10443.298    65.993979    292.02817 
   23180   0.95407682   -10441.808   -304.25404    298.03414 
   23190   0.95361342   -10439.941   -491.90358    299.15816 
   23200   0.95318212   -10437.915   -585.93476    295.20904 
   23210   0.95279072   -10435.602   -708.98728    297.05228 
   23220   0.95244819   -10432.922   -832.58197    300.26198 
   23230   0.95216464   -10430.221   -1000.3214     303.6053 
   23240   0.95195161   -10427.498   -1023.8339    297.48969 
   23250   0.95181308   -10424.868   -1075.2363    297.56805 
   23260   0.95175264   -10421.675   -1119.6636    298.20969 
   23270   0.95177517   -10418.242   -1210.2187    300.06521 
   23280   0.95188618    -10414.67   -1137.5833    303.75642 
   23290   0.95208125   -10411.059   -830.45516     297.4367 
   23300    0.9523406   -10407.025    -572.0098    295.73895 
   23310   0.95264606   -10402.267   -466.56976    300.89758 
   23320   0.95298898    -10397.04   -326.16183    306.68139 
   23330   0.95335851   -10391.851    8.6753905    299.98294 
   23340   0.95373278   -10386.466     263.1876    296.88118 
   23350   0.95409287   -10380.721    359.94331    303.26289 
   23360   0.95442959   -10374.573    490.41277    303.11654 
   23370    0.9547343   -10368.627    528.54661     306.6858 
   23380    0.9550026   -10363.333    608.39538    310.03328 
   23390   0.95522852   -10358.885    739.16302    306.45997 
   23400   0.95540395   -10355.605    643.92016    309.33378 
   23410   0.95553366   -10353.348    475.04681    308.96759 
   23420   0.95563004   -10352.394    279.84033    309.98642 
   23430   0.95570564   -10352.974    249.24767    310.31052 
   23440   0.95576265   -10354.715    410.09015    303.92585 
   23450   0.95579085    -10358.03    484.29566    308.12886 
   23460   0.95578184   -10362.694    712.82218    304.96445 
   23470   0.95572049   -10368.759    902.79236    299.83029 
   23480   0.95559302   -10375.493    902.00005    297.50525 
   23490   0.95539871   -10382.833      638.738    300.40712 
   23500   0.95515483   -10391.101     298.1719    306.32015 
   23510   0.95488353   -10400.596    230.54144    305.82094 
   23520   0.95459149   -10411.254    205.65182    304.37829 
   23530   0.95428098   -10421.842    147.10396    297.66106 
   23540   0.95395632   -10431.778    11.687765    298.48901 
   23550   0.95362583   -10440.842   -80.483668    302.54654 
   23560   0.95329497   -10449.065    52.223319    297.42914 
   23570   0.95295618   -10455.745    205.27271    289.42641 
   23580   0.95260006   -10460.611    57.321915    290.87033 
   23590   0.95223486   -10463.901   -147.87829    291.61592 
   23600   0.95187646   -10466.131   -454.52308    295.76457 
   23610   0.95154631   -10467.574   -677.36469    295.99954 
   23620   0.95126123   -10468.578   -734.49059    292.42721 
   23630   0.95102666    -10469.12   -767.46434    296.09244 
   23640   0.95084452   -10468.982   -662.60395    290.40108 
   23650   0.95071057   -10468.407   -729.98405    293.37495 
   23660   0.95062779   -10466.952   -695.40811    292.60191 
   23670   0.95059477   -10465.042   -533.11954    291.40698 
   23680   0.95060072   -10462.653   -423.79235    293.63722 
   23690   0.95063899   -10459.678   -447.81425    294.95272 
   23700   0.95071192   -10456.439    -573.0132    296.46314 
   23710   0.95082784   -10452.891   -574.18452    291.17378 
   23720   0.95098878   -10449.004   -580.71887     294.3757 
   23730   0.95119379   -10444.295    -438.4645    294.95424 
   23740   0.95143484   -10439.548   -329.71376     292.8004 
   23750    0.9517062   -10434.393   -470.22623    298.10944 
   23760    0.9520161   -10429.076    -500.6031    300.19423 
   23770   0.95236771   -10423.942   -369.58086    295.78848 
   23780    0.9527543   -10418.784   -353.67839     294.3025 
   23790   0.95317439   -10413.407   -387.80764    298.69289 
   23800   0.95362924   -10407.961   -242.22682    296.31459 
   23810   0.95411215   -10402.825   -302.77056     299.4383 
   23820   0.95462611   -10397.766   -421.51378    303.02585 
   23830   0.95518091   -10393.773   -555.35612    305.61165 
   23840   0.95578543   -10390.744   -487.61301    301.61252 
   23850   0.95643747   -10388.418   -446.99127    303.06922 
   23860   0.95713416   -10386.831   -459.05705    307.15189 
   23870   0.95787679   -10386.553   -456.60656    311.10471 
   23880   0.95866478    -10387.49   -286.95888    305.55608 
   23890   0.95948754   -10389.516   -131.65869    307.12557 
   23900   0.96033115   -10392.563    214.58739    305.57031 
   23910    0.9611716   -10396.101    625.89321     300.1029 
   23920   0.96197852    -10399.61     964.6923    297.42065 
   23930   0.96272602   -10403.115    1151.8948    298.48384 
   23940   0.96339822   -10406.291    1297.5083    295.38987 
   23950   0.96398457   -10409.268    1257.2114     298.9608 
   23960    0.9644844   -10412.392    1283.4006    300.78586 
   23970   0.96489489   -10415.516    1408.0974    296.57018 
   23980    0.9652076   -10418.364    1351.8074    299.21532 
   23990   0.96542475    -10421.69    1156.6518    307.90615 
   24000   0.96555708   -10425.806     1151.334    303.92191 
   24010   0.96560676   -10430.674    1102.1745    301.88085 
   24020   0.96557474   -10435.596     1076.241    302.76492 
   24030   0.96546307   -10441.002    928.06344    306.95229 
   24040   0.96528014   -10446.394     841.7254    302.08722 
   24050   0.96503328   -10451.885    669.29766    303.67841 
   24060   0.96473199   -10456.768    685.92531    296.96822 
   24070   0.96437643   -10460.578    694.65948    294.75064 
   24080    0.9639653   -10463.733    555.32505    304.34607 
   24090   0.96350524   -10466.348     594.9427    302.38635 
   24100    0.9629954    -10469.13    581.59199    302.14764 
   24110   0.96243555   -10471.711    564.35693    299.36987 
   24120   0.96182632   -10473.633    574.90083    291.38017 
   24130   0.96116872   -10474.985    296.53798    296.46838 
   24140   0.96047943   -10475.653    82.794649    293.22434 
   24150   0.95977668   -10475.673    -254.9627    293.18382 
   24160   0.95908472   -10475.079   -638.44899     299.0537 
   24170   0.95843079   -10474.486   -906.74713    305.49818 
   24180   0.95783531   -10474.648    -1045.076    306.93548 
   24190   0.95730856   -10475.804    -929.8931    300.16987 
   24200    0.9568454   -10477.403   -889.03118    300.53754 
   24210   0.95644227   -10479.103   -817.35783    297.87472 
   24220   0.95609467   -10480.903   -702.66509    297.11713 
   24230   0.95579462   -10482.612   -545.53791     291.9994 
   24240   0.95553317   -10483.682   -602.34895    292.57105 
   24250   0.95531305   -10484.511   -746.00926    300.91335 
   24260   0.95514291   -10485.261   -592.86018    298.20934 
   24270   0.95501395   -10486.164    -327.9409    294.25558 
   24280   0.95490896   -10486.788    -256.5187    292.89478 
   24290   0.95482262   -10486.711   -325.85335    290.83146 
   24300   0.95475951   -10485.977   -433.44705     294.3512 
   24310   0.95472583   -10484.583   -361.56572    294.19469 
   24320   0.95471955   -10482.737    -393.2958    295.50955 
   24330   0.95474161   -10480.474   -332.84799    299.69998 
   24340   0.95478652    -10478.17    16.311529    297.03055 
   24350    0.9548316   -10475.497    313.35806    289.93129 
   24360   0.95485702   -10471.999    243.26678     292.8766 
   24370   0.95486369   -10467.404    254.14165    291.76557 
   24380   0.95485133   -10461.714    328.19079    288.54725 
   24390   0.95481615   -10454.858    152.25451    297.97124 
   24400   0.95476831   -10447.222    17.354368    301.32188 
   24410   0.95471773    -10439.76   -5.4273547    300.67578 
   24420   0.95466653     -10432.4    13.582709    300.15574 
   24430   0.95461446   -10425.463   -97.646601    301.72489 
   24440   0.95456855   -10419.063    -212.5908    304.50507 
   24450   0.95453761    -10413.59   -301.92978    307.86147 
   24460   0.95452743   -10409.254   -243.79903    305.13596 
   24470   0.95453548   -10405.923   -172.64613    304.44311 
   24480   0.95455674    -10403.62   -141.39092    309.23871 
   24490   0.95458773   -10402.378    32.508045    304.07188 
   24500   0.95461942   -10402.318   -76.083679    306.41066 
   24510   0.95465681   -10402.983   -92.880388    303.33488 
   24520   0.95470134   -10404.237    55.268873    296.95519 
   24530   0.95474388   -10405.817    31.237568    301.78183 
   24540   0.95478349   -10407.441    158.58268    297.19509 
   24550   0.95481284   -10409.235    253.94638    293.72471 
   24560   0.95482507   -10410.628    193.08424    296.65092 
   24570   0.95482273   -10411.998    151.82235    296.65477 
   24580   0.95480988   -10413.184    48.687693    298.21704 
   24590   0.95479301   -10414.817   -61.847244    301.97778 
   24600   0.95477883   -10416.853      10.4421    298.40453 
   24610   0.95476409   -10419.377    -3.129404    297.05952 
   24620   0.95475121   -10422.636   -325.44905    302.88888 
   24630   0.95476051   -10426.888   -401.67052    297.17061 
   24640   0.95479939   -10432.052   -305.14848     293.3142 
   24650   0.95486311   -10438.289   -382.46749    303.15825 
   24660   0.95495524   -10446.304   -260.91129    298.26548 
   24670   0.95507075   -10455.819    -228.3337    296.22425 
   24680   0.95520628   -10466.426   -175.03398    295.90902 
   24690   0.95535816   -10477.368   -42.347827    294.61723 
   24700   0.95551718   -10488.194    112.65322    294.85635 
   24710   0.95567261   -10498.059    186.88586    291.42608 
   24720   0.95582111   -10507.035   -72.699693     298.4236 
   24730   0.95597682   -10515.067   -28.494447    292.17719 
   24740   0.95614012   -10521.502   -19.419126    286.61187 
   24750   0.95631101   -10526.258   -215.71939     291.3044 
   24760   0.95650238   -10529.545    -327.3239    290.64118 
   24770    0.9567242   -10531.948   -420.21419     292.3102 
   24780   0.95698283   -10533.646   -360.81281    295.51073 
   24790   0.95727365   -10534.475    71.916751    280.25508 
   24800   0.95757161   -10533.684    102.50821    280.60505 
   24810   0.95787295   -10531.243   -249.60407    295.09863 
   24820   0.95819923   -10528.101   -234.85314      292.572 
   24830   0.95855299    -10524.52   -79.632467    288.45472 
   24840    0.9589234   -10519.967    54.507747    288.53076 
   24850   0.95930176    -10514.51     16.98899    295.24643 
   24860   0.95968915    -10508.47    51.416919    294.32298 
   24870   0.96008494   -10502.645    25.511028    297.86847 
   24880   0.96048893   -10496.794     194.5485    292.59059 
   24890   0.96089177   -10490.881    247.64274    294.87457 
   24900   0.96128728    -10484.95    291.88715    298.58764 
   24910   0.96167194   -10479.142    370.02453     296.1202 
   24920   0.96204117   -10473.987    281.27745    297.88497 
   24930   0.96239963    -10469.15    172.10707    299.37052 
   24940   0.96275563   -10464.962    9.9857666    307.16345 
   24950   0.96311788   -10461.973    213.72824     305.1897 
   24960    0.9634738   -10460.037    515.16034    302.86583 
   24970   0.96380116   -10458.887    751.60594    303.36806 
   24980   0.96407975   -10458.537    1067.3991    300.13963 
   24990   0.96428693   -10458.406    1247.6666    294.04014 
   25000   0.96440842   -10457.814    1148.8687    294.16343 
   25010   0.96444836   -10457.073    853.60337    301.85664 
   25020   0.96442369   -10456.536    801.66718    298.86495 
   25030   0.96433896   -10456.419    742.31619    297.75713 
   25040     0.964197   -10456.323    593.47422    297.97429 
   25050   0.96400846   -10456.165    307.20448    299.11769 
   25060   0.96379298   -10456.149    3.6144235    302.70401 
   25070   0.96357059   -10456.595   -15.913144    300.23975 
   25080   0.96334458   -10457.314     15.22289      299.144 
   25090   0.96311271    -10458.25   -5.1812057    300.08273 
   25100   0.96287609    -10459.14    34.058009    295.72603 
   25110   0.96263287   -10459.948    13.167878    295.38782 
   25120   0.96238528   -10460.434   -212.17122    301.80525 
   25130   0.96214687   -10461.277   -233.38331    300.63756 
   25140   0.96192048   -10462.305    -108.8527    296.69068 
   25150    0.9616982   -10463.374    4.2381562    295.21748 
   25160   0.96147125   -10464.048    161.71133    290.71261 
   25170   0.96122981   -10464.031    130.62829    290.27729 
   25180   0.96097508   -10463.017   -3.5225652     293.2984 
   25190   0.96071579   -10461.211   -69.015182     294.3092 
   25200   0.96045697   -10458.835   -95.367818    299.93821 
   25210   0.96019966   -10456.072    30.338606     298.9077 
   25220   0.95993588   -10452.783    227.14155    292.39531 
   25230    0.9596535   -10448.106    183.56874    292.72224 
   25240    0.9593551   -10441.254   -124.94777    299.84168 
   25250   0.95906074   -10432.243   -345.84809    302.81612 
   25260   0.95878747   -10421.675   -446.89685    303.77343 
   25270   0.95854373   -10409.923   -499.92814     306.7442 
   25280   0.95833301   -10397.563   -399.67411    301.81374 
   25290   0.95815024   -10385.636     -364.324     301.9422 
   25300   0.95799234   -10374.232   -370.26858    302.93458 
   25310   0.95786063   -10364.007    -454.2196    305.58052 
   25320   0.95776147   -10355.493   -589.95307    311.84754 
   25330   0.95770356   -10349.367   -551.99706    312.04737 
   25340   0.95768551   -10345.451    -417.9652    306.57331 
   25350   0.95769819   -10342.812    -190.7472    300.34502 
   25360   0.95772605   -10341.019   -75.673617    303.69915 
   25370   0.95776035   -10340.055   -147.78595    309.93443 
   25380    0.9578055   -10340.371    -221.1339    310.38374 
   25390    0.9578679   -10342.287   -326.92595    316.43287 
   25400   0.95795249   -10346.102   -85.752954    307.29573 
   25410   0.95804511   -10350.987     164.4539    301.02605 
   25420   0.95812734   -10356.337    267.64296     304.9224 
   25430   0.95819055   -10362.215    301.97528    305.57883 
   25440   0.95823302   -10368.932    167.34481    307.62048 
   25450   0.95826354   -10376.495    28.147067    307.76496 
   25460   0.95829083   -10384.474    82.828972    301.82265 
   25470   0.95831336   -10392.321    44.528028     301.1173 
   25480   0.95833342   -10399.656   -129.87255    300.73086 
   25490    0.9583639    -10406.58   -382.10644    300.84095 
   25500   0.95842184   -10412.878   -490.20361     302.1335 
   25510   0.95851638   -10418.876   -533.89892    305.50883 
   25520   0.95865046   -10424.822   -454.34965    304.58775 
   25530   0.95881924   -10430.687   -340.17652    302.30291 
   25540   0.95901485   -10436.303   -273.87307    303.18688 
   25550   0.95923142   -10441.879   -136.36693    300.95031 
   25560   0.95945971   -10446.633    36.571917    294.43037 
   25570   0.95968781   -10450.556    135.17911    293.78048 
   25580   0.95990848   -10453.583    73.816034    299.69415 
   25590   0.96012391   -10456.312    125.08999    296.13325 
   25600   0.96033156   -10458.509    204.24891    292.10297 
   25610   0.96052634   -10460.198    153.53356    297.08766 
   25620   0.96071033   -10461.416    168.11169    297.67135 
   25630   0.96088344   -10462.634    168.65169    300.53027 
   25640   0.96104419   -10464.222    301.11013    298.41544 
   25650   0.96118371    -10465.33    458.44215    293.82854 
   25660   0.96129287   -10466.571    248.16424    301.66838 
   25670   0.96138328   -10468.009    103.40241    302.81622 
   25680   0.96146636   -10470.083    87.738351    302.05249 
   25690   0.96154199   -10472.502    269.62162    299.37777 
   25700   0.96159875   -10475.183    427.99592    298.85409 
   25710   0.96162434   -10478.074    549.59174    296.17263 
   25720   0.96161118   -10480.658    442.80282    294.71806 
   25730   0.96156541    -10483.07    267.03593    296.67293 
   25740   0.96149893   -10485.342    178.27911    295.38976 
   25750   0.96142028   -10487.576    -42.33299    300.07231 
   25760   0.96134341   -10490.092   -179.91886    302.08536 
   25770   0.96127922   -10493.534   -277.56203    302.82542 
   25780   0.96123459   -10497.482   -317.45717    299.17881 
   25790   0.96121467   -10502.217   -512.00355    299.50091 
   25800   0.96123271   -10507.783   -736.11375    304.48957 
   25810   0.96130312   -10514.429   -617.56276    297.63253 
   25820   0.96141954   -10521.559   -394.78357    289.59004 
   25830   0.96156649   -10528.298   -261.75536    290.67394 
   25840   0.96173432   -10534.514   -233.49233     289.7851 
   25850   0.96192067   -10540.533   -221.34117    294.95161 
   25860   0.96212306   -10546.577   -17.850152    295.24439 
   25870    0.9623272   -10552.303    337.22085    286.27916 
   25880   0.96250938   -10557.043    466.59895    283.72401 
   25890   0.96265933   -10560.627    383.08315     288.0436 
   25900   0.96278196   -10563.444    242.45206    290.79556 
   25910   0.96288788   -10565.615    40.707533    294.86635 
   25920   0.96299047   -10567.481   -12.793964    293.20507 
   25930   0.96309417   -10568.912     54.36547    290.30919 
   25940   0.96319567   -10569.993   -36.919736    294.02729 
   25950   0.96330067   -10570.516    -174.2773    296.68456 
   25960   0.96341784   -10570.976   -113.76304    294.24887 
   25970   0.96354388   -10571.024    33.409391    290.94326 
   25980   0.96366938   -10570.202    80.271397    291.13547 
   25990   0.96378913   -10568.084    223.53663    286.74491 
   26000   0.96389429   -10564.634    217.31655    293.06608 
   26010    0.9639824   -10559.575    335.76398    294.93674 
   26020   0.96404621   -10552.972    519.55882    288.85714 
   26030   0.96407384   -10544.781    488.41118     294.5811 
   26040   0.96406451   -10535.133    559.30552    293.39632 
   26050   0.96401419   -10524.546    600.00276    291.17845 
   26060   0.96391968    -10513.34    533.63451    294.18182 
   26070   0.96378621   -10502.267    334.45251    297.99152 
   26080   0.96362682   -10491.955    155.13383    302.78499 
   26090   0.96345317   -10483.158    206.19617    302.22423 
   26100   0.96326331   -10476.121     303.7698     305.7698 
   26110   0.96304773   -10470.694     611.8413    302.90569 
   26120   0.96278608   -10466.464    868.91604    294.51996 
   26130   0.96246003   -10462.367    914.42595    291.76209 
   26140   0.96206547    -10458.09    726.06777    298.73769 
   26150   0.96161384   -10453.911    584.31193    299.79898 
   26160   0.96111581   -10450.019    510.07731    292.65596 
   26170   0.96057916   -10445.896    212.72926    292.52927 
   26180   0.96002485   -10441.331    -268.9519    303.77574 
   26190   0.95948428   -10437.255   -405.30339    307.14313 
   26200   0.95896938   -10434.289    -292.1861    304.52682 
   26210   0.95847397   -10432.276   -239.82203    302.09028 
   26220   0.95799476   -10430.925   -318.26318    302.67704 
   26230   0.95753626   -10430.251   -352.42204    305.67512 
   26240   0.95709958   -10430.292   -99.733427    300.74747 
   26250   0.95666816   -10430.587     169.4001    292.23667 
   26260   0.95622437   -10430.678     117.3505    298.06433 
   26270   0.95576908   -10430.553    93.959418    297.76305 
   26280   0.95530546   -10430.226    27.322475    294.55626 
   26290   0.95483896   -10429.665   -207.62886    299.94592 
   26300     0.954385   -10429.137   -367.24674    302.98252 
   26310   0.95395575   -10428.808   -399.54273    296.69304 
   26320   0.95355659   -10428.748   -654.09248    302.67649 
   26330   0.95320206   -10429.183   -672.94281    306.01149 
   26340   0.95289461   -10430.435   -474.41807     300.5323 
   26350   0.95262195   -10432.384   -397.54388     300.1079 
   26360   0.95237743   -10434.915   -288.17348    300.86339 
   26370   0.95215179   -10437.912    1.9488805    292.42044 
   26380   0.95192723   -10440.727    35.287729     289.3935 
   26390   0.95170018   -10442.851   -91.577983    289.14372 
   26400   0.95147937   -10444.181   -234.12568    291.80411 
   26410   0.95127471   -10444.779   -352.17572    293.73183 
   26420   0.95109631   -10445.171   -611.61839     301.9967 
   26430   0.95096023   -10445.957   -654.73601    302.51455 
   26440   0.95087039   -10447.365   -418.16703    294.25835 
   26450   0.95081174   -10448.777   -243.04758    295.83057 
   26460   0.95077131   -10450.033   -197.36142    296.06559 
   26470   0.95074667   -10451.345   -329.81602    296.90662 
   26480   0.95074609   -10452.662   -414.89863    294.09115 
   26490   0.95077623   -10453.422   -472.52184    291.86776 
   26500   0.95084163   -10453.855   -579.86882    296.33729 
   26510   0.95095019   -10454.154   -755.64952    304.59502 
   26520   0.95111393   -10455.258   -795.45318    302.30254 
   26530   0.95133713   -10456.634   -718.32193    292.66725 
   26540   0.95161571   -10457.958   -751.71138    295.09837 
   26550   0.95195092   -10459.023   -766.89974    300.05726 
   26560    0.9523441   -10460.566   -710.96434    302.23414 
   26570   0.95279106    -10462.57   -506.70991    295.71701 
   26580   0.95327866   -10464.497   -327.55111    293.42104 
   26590   0.95379379   -10465.803   -208.46674     291.7068 
   26600   0.95432764   -10466.768   -168.73057     296.5756 
   26610   0.95487596   -10467.304   -59.658762    292.13752 
   26620   0.95543307   -10467.246   -151.12287    294.10096 
   26630   0.95600446   -10466.941   -340.84558    300.93945 
   26640   0.95660237   -10466.932   -334.06928      299.419 
   26650    0.9572263   -10467.078   -131.42077    296.07767 
   26660   0.95786158   -10466.799    208.53881    290.57918 
   26670   0.95848465   -10465.595    450.26082    287.91106 
   26680   0.95907772   -10463.121    494.16595    292.40476 
   26690   0.95963515   -10459.733     604.6082    291.89011 
   26700   0.96015017   -10455.164    650.83163    295.40825 
   26710   0.96061902   -10449.931    592.29123    300.53321 
   26720   0.96104415   -10444.373    645.08935    298.13055 
   26730   0.96142289   -10438.845    674.83449    301.53398 
   26740   0.96175174   -10433.319    776.46713    302.30272 
   26750   0.96202353    -10427.89    942.42973    294.63767 
   26760   0.96222945   -10422.433    770.58342     297.6015 
   26770   0.96237852    -10416.37    574.75815    303.00105 
   26780   0.96248492   -10410.757    458.89496    307.06459 
   26790   0.96255753   -10406.123    378.12258    308.84566 
   26800   0.96260171   -10402.863      403.737    305.85488 
   26810   0.96261615   -10400.698     447.9903    307.37809 
   26820   0.96259555   -10399.163    745.39372    295.93838 
   26830   0.96252261   -10397.628     735.9895     298.2211 
   26840   0.96239489   -10396.388    609.98418    308.67091 
   26850    0.9622201   -10395.867    670.03827    304.63468 
   26860   0.96199647   -10396.558     645.8366     307.3128 
   26870   0.96172284   -10398.229    804.56557    304.16287 
   26880   0.96139048    -10400.96    808.83228    301.53255 
   26890   0.96099917    -10404.55    592.62412    304.88625 
   26900   0.96056303   -10409.114    441.14736    301.81145 
   26910   0.96009363   -10414.664    324.77022    300.42185 
   26920   0.95959907   -10421.228    252.83707    299.49033 
   26930   0.95908504   -10428.878     158.6125      302.318 
   26940   0.95855855   -10437.513    54.487248    297.79984 
   26950   0.95802867   -10446.803    -144.1927    296.60162 
   26960    0.9575085   -10456.288   -290.72906    298.37439 
   26970   0.95700822   -10465.726   -262.31072    293.96054 
   26980   0.95652666   -10474.604   -204.34975    293.19947 
   26990   0.95606021   -10482.504   -190.15568    292.82431 
   27000     0.955607   -10489.127     -81.6966    288.91242 
   27010   0.95516137   -10494.147   -147.25762     289.6207 
   27020   0.95472762    -10497.82   -415.91875    296.69788 
   27030    0.9543232   -10500.836    -540.1146    296.07347 
   27040   0.95395755   -10503.137   -493.51152    290.74335 
   27050   0.95363046    -10504.56   -715.75874    295.18202 
   27060   0.95335593   -10505.481   -983.00624    301.90919 
   27070   0.95315317   -10506.686   -1144.4067    303.98581 
   27080   0.95303325   -10508.528   -1073.4121    300.86273 
   27090    0.9529912   -10510.377   -772.14471     292.0818 
   27100   0.95300696   -10511.577   -579.34983     288.6445 
   27110   0.95306649   -10511.593   -558.69932     288.1542 
   27120   0.95316802   -10510.509   -633.60065    291.09188 
   27130   0.95331604   -10508.827   -696.24919    297.09219 
   27140   0.95351477   -10507.042   -694.21207    297.95377 
   27150   0.95376576   -10505.613    -743.0963    300.41962 
   27160   0.95406999    -10504.11   -507.94905    289.49521 
   27170    0.9544131   -10502.361   -303.39094    289.62152 
   27180   0.95477777   -10499.484    10.780858    287.20692 
   27190   0.95514315    -10495.82     149.0655     290.2397 
   27200   0.95549823   -10491.344    173.81418    290.12651 
   27210   0.95584245   -10486.293     36.52481    294.10808 
   27220   0.95618437   -10481.296   -120.45659    299.61847 
   27230   0.95653527    -10476.89   -183.14153    300.79342 
   27240   0.95689841   -10473.062    14.194339    294.95433 
   27250   0.95726094   -10469.469    215.32144    295.80251 
   27260   0.95760824   -10466.234    299.65542    302.31294 
   27270   0.95793305   -10463.349     495.1609    291.13995 
   27280   0.95822478   -10460.492    360.76142      293.643 
   27290   0.95849048   -10457.603    146.08863    299.74155 
   27300   0.95874409   -10455.018    158.35336     294.5927 
   27310   0.95898709    -10452.77    93.939749    298.32839 
   27320   0.95922295   -10450.575     86.38024     297.9566 
   27330   0.95945321   -10448.834    22.063951    300.49833 
   27340   0.95968087   -10447.496    78.719355    300.46352 
   27350   0.95990217   -10446.513    234.07664    296.31785 
   27360    0.9601087   -10445.687    52.161631    304.84929 
   27370   0.96031102   -10445.756   -161.83789    311.44123 
   27380   0.96052345   -10446.997   -52.552254    302.31139 
   27390   0.96074076   -10448.966    95.650922    300.35686 
   27400   0.96095134    -10451.16    185.93367    303.46695 
   27410   0.96114808   -10453.319    317.78206    297.18154 
   27420   0.96132265   -10455.697    362.97748    296.03839 
   27430   0.96147106   -10457.401    363.81203    293.17257 
   27440     0.961593   -10458.593    347.05201    293.97421 
   27450   0.96168927   -10459.161    329.04149    296.13788 
   27460   0.96176201   -10459.813    240.75171    300.04628 
   27470   0.96181536   -10460.254    381.10342    293.92052 
   27480    0.9618433   -10460.472    219.09777    297.37897 
   27490   0.96185617   -10460.887   -128.33292    306.53612 
   27500   0.96187597    -10461.79   -86.602876    302.63208 
   27510    0.9619018   -10463.348    122.65757    293.64476 
   27520   0.96191902   -10464.507    254.20433    292.04643 
   27530   0.96191827   -10465.199    253.59558    297.47417 
   27540   0.96189738   -10465.626     345.1199    295.75811 
   27550   0.96185311    -10466.15    139.38292     304.5674 
   27560   0.96179581   -10467.033     224.7841    297.42199 
   27570    0.9617227   -10467.949    319.30421    291.57991 
   27580   0.96162729   -10468.825    152.92843    303.47705 
   27590   0.96151716   -10469.913    292.97341    301.22405 
   27600   0.96138521   -10471.911     467.2473    295.07891 
   27610   0.96121984   -10473.925    438.36964    292.62083 
   27620   0.96102237   -10475.887    293.80381    296.30153 
   27630   0.96080169    -10477.99    257.28949    295.52049 
   27640   0.96056198   -10480.343    183.92789    298.42108 
   27650   0.96030689   -10483.592    179.27911    299.53779 
   27660   0.96003705   -10487.408    266.08202    295.38952 
   27670   0.95974717   -10491.809    279.61984    294.47102 
   27680   0.95943677   -10496.146    149.68558    292.90672 
   27690   0.95911527   -10500.633   -133.08828     296.0378 
   27700    0.9588004   -10505.081   -148.73554     291.7499 
   27710   0.95849489    -10509.04   -85.227896    288.80597 
   27720    0.9581967   -10512.643   -334.06113    296.41722 
   27730   0.95792096   -10515.826   -463.81759    295.88701 
   27740   0.95767796   -10518.987    -449.5047    291.59608 
   27750   0.95746819   -10521.705   -508.34133    296.18053 
   27760   0.95729341   -10524.174   -369.37341    293.95256 
   27770   0.95714476    -10526.32   -145.24362    290.67077 
   27780   0.95700736   -10527.604   -81.816216    288.30438 
   27790   0.95687664   -10528.032   -202.82785    290.72093 
   27800   0.95675972    -10527.71   -267.07633    295.10634 
   27810   0.95666131   -10526.858   -228.25029    294.44197 
   27820   0.95658028   -10525.545   -295.46548    295.39225 
   27830   0.95652032   -10523.663   -314.63546    292.67089 
   27840    0.9564836   -10521.123   -297.70926    291.72819 
   27850   0.95646862   -10517.783   -281.81634     297.2056 
   27860   0.95647385   -10514.092   -237.21917     300.2101 
   27870   0.95649597   -10510.306   -103.25721    299.37605 
   27880    0.9565255    -10506.43    69.711995    299.74317 
   27890   0.95654949   -10502.472    285.97773    295.57841 
   27900   0.95655307   -10498.083     421.0674    292.03357 
   27910    0.9565261   -10492.918    479.65278    290.72238 
   27920   0.95646551   -10486.738    295.49393    295.90915 
   27930   0.95638185   -10479.817    188.64531    299.49259 
   27940   0.95628243   -10472.887     300.1874    295.05442 
   27950   0.95616005   -10465.853     417.5273    295.70549 
   27960   0.95600545    -10458.59    566.34932    295.88297 
   27970    0.9558089   -10451.102    599.44591    293.22025 
   27980   0.95556842    -10443.54    436.96673    294.10914 
   27990   0.95529418   -10435.901    254.85971    294.92313 
   28000   0.95500014   -10428.695   -31.751241     305.7633 
   28010   0.95470361   -10422.401   -18.721511    305.11724 
   28020   0.95440643   -10417.721    53.861748    298.12719 
   28030   0.95410503   -10413.717   -54.920786    294.97929 
   28040   0.95380534   -10409.725   -112.78113    291.53571 
   28050   0.95351256   -10405.829   -253.13684    301.22383 
   28060   0.95323479   -10402.149   -270.86213    303.63322 
   28070   0.95297551   -10399.471   -307.82726    303.69338 
   28080    0.9527381   -10397.829   -465.27647    306.64379 
   28090    0.9525324   -10397.197   -523.69419     304.7907 
   28100   0.95236373   -10397.242   -534.47133    300.78134 
   28110   0.95223448   -10397.981   -678.63147    306.24969 
   28120   0.95215301   -10399.589   -680.68371    308.18786 
   28130    0.9521202   -10401.945   -483.78545     302.2956 
   28140   0.95212371   -10405.183   -351.01758    301.30671 
   28150    0.9521529   -10408.241   -225.21313    294.37252 
   28160    0.9522008   -10410.942   -304.73756    294.39189 
   28170   0.95227085   -10412.926   -314.01847    293.03786 
   28180   0.95236522   -10414.351   -332.03725    290.47303 
   28190   0.95248557   -10414.965   -462.94462    298.08166 
   28200   0.95264047   -10415.727   -505.50234    301.43186 
   28210   0.95283302   -10416.445   -360.94507    293.18667 
   28220   0.95305573   -10417.029   -391.85412     297.2192 
   28230   0.95330809   -10417.411   -311.24169    301.13363 
   28240   0.95358522   -10418.032    -123.8975    296.42995 
   28250   0.95387546   -10418.535   -37.230693    294.17627 
   28260    0.9541719   -10418.543   -11.949383    294.55591 
   28270   0.95447294   -10418.146   -106.84764    298.61491 
   28280   0.95478495   -10417.795   -256.60595    298.87179 
   28290   0.95511965   -10417.753   -468.54008    304.65309 
   28300   0.95549067   -10418.315   -420.65534    304.68403 
   28310   0.95589555   -10419.706   -163.01766    298.34235 
   28320    0.9563186   -10421.777   -145.14578      300.506 
   28330   0.95675737    -10424.72   -267.44067    304.68989 
   28340   0.95721898   -10429.219   -154.59952    298.64525 
   28350   0.95769695   -10435.116    33.995314    292.93454 
   28360   0.95817826   -10441.733     47.36655    296.14457 
   28370   0.95866054   -10449.677    36.449497    301.04751 
   28380     0.959143   -10459.284    241.32674    298.08891 
   28390   0.95961278   -10469.734     412.0607    296.40331 
   28400   0.96005681   -10480.554     519.3786    296.84805 
   28410   0.96046589   -10490.844    680.86018    290.31678 
   28420   0.96083009   -10500.217     653.2284    292.03599 
   28430   0.96114764    -10508.04    795.07422    288.80084 
   28440   0.96140992   -10514.198    898.64506    287.98454 
   28450   0.96160924   -10519.064     799.3808    296.11072 
   28460   0.96174995   -10523.236    814.68861    295.05296 
   28470   0.96183232   -10526.743    788.33545    291.28125 
   28480   0.96185798   -10529.442    662.49589    293.52034 
   28490   0.96183347   -10531.283    715.67046    288.48102 
   28500    0.9617563   -10532.099    727.60772     287.4032 
   28510    0.9616252   -10531.823    621.43193    287.47378 
   28520   0.96144703   -10530.386    497.18314    286.88327 
   28530   0.96123052   -10527.573    353.44773     287.7033 
   28540   0.96098552   -10523.456    242.73964     286.0226 
   28550   0.96072099   -10517.992    32.761818    289.32014 
   28560   0.96045151   -10511.415   -228.27549    292.48298 
   28570   0.96019518   -10504.271   -369.00522    294.71556 
   28580   0.95996225   -10496.951   -336.03137    297.70134 
   28590   0.95975071   -10489.613   -185.76686    298.10471 
   28600   0.95955132   -10482.925   -130.54162    302.96151 
   28610   0.95935856   -10477.067   -17.069925    308.38926 
   28620   0.95916354   -10472.779    286.18913    301.17549 
   28630     0.958947   -10469.479    388.07913    298.48878 
   28640   0.95869957   -10466.405     434.4449    297.38483 
   28650    0.9584166   -10463.427    560.66995    291.58388 
   28660   0.95809063   -10460.025    466.03698      291.501 
   28670   0.95772873   -10456.507    19.837487    300.20783 
   28680   0.95735972   -10452.803   -225.75231     296.9024 
   28690   0.95700374   -10449.612   -413.85376    299.80317 
   28700   0.95667275   -10446.472   -377.29712    296.86464 
   28710   0.95636557   -10443.584   -267.32934    295.60048 
   28720   0.95607546   -10440.601   -318.34015    299.26904 
   28730   0.95580576   -10437.895   -441.34417    301.00418 
   28740   0.95556532   -10435.693   -510.45958    299.92469 
   28750   0.95535946   -10434.035   -490.46157    298.51747 
   28760    0.9551875   -10432.383   -451.30239    294.35158 
   28770   0.95504766   -10430.418   -536.55971    294.38162 
   28780   0.95494656     -10428.3   -769.44742    298.29527 
   28790   0.95490079   -10426.205   -948.44261     302.5906 
   28800   0.95492312   -10424.607   -880.33947     303.3711 
   28810   0.95501016   -10423.944    -662.0365    302.05099 
   28820   0.95514797   -10423.642   -472.91573    296.52014 
   28830   0.95532381   -10423.299   -423.34393     298.3014 
   28840   0.95553297   -10423.024   -353.41138    300.61734 
   28850   0.95577057   -10423.037   -217.83765    298.00875 
   28860   0.95602846   -10422.984   -207.27171    299.41656 
   28870   0.95630528   -10423.242   -228.16677       301.74 
   28880   0.95660182   -10423.766   -102.60157    296.79512 
   28890   0.95691072   -10424.428   -24.073268    295.01512 
   28900   0.95722631    -10424.44    -50.63051    296.77275 
   28910   0.95754963   -10424.481   -21.362307    300.02341 
   28920   0.95787886   -10424.697    53.282854    303.35726 
   28930   0.95820766   -10425.387    244.48582    301.05439 
   28940   0.95852283   -10426.601    476.65987    296.26095 
   28950   0.95880752   -10427.511    676.19578    288.00007 
   28960   0.95904932   -10427.548    472.04655    290.77151 
   28970   0.95925968   -10426.521    186.33799    293.32649 
   28980   0.95946009   -10424.914   -171.10663    297.67213 
   28990   0.95967608   -10422.678    -501.5157    301.79784 
   29000   0.95993124   -10420.105   -644.19429     304.1229 
   29010   0.96023604   -10417.193   -491.06921    300.20255 
   29020   0.96058114   -10413.659   -221.15118    298.27386 
   29030   0.96094782   -10408.862    29.952262    295.14865 
   29040   0.96131779   -10402.703     238.3557     293.7359 
   29050   0.96167672   -10394.919    274.09605    299.25218 
   29060   0.96201976    -10385.99    351.30699    304.66086 
   29070   0.96233988   -10376.828    648.16948     301.6764 
   29080   0.96261794   -10368.268    790.95019    303.16853 
   29090   0.96284177   -10360.225    813.89029    304.29917 
   29100     0.963009   -10353.073    807.02398     306.9945 
   29110   0.96311761   -10347.123    910.03917    306.24352 
   29120   0.96316227   -10342.458    755.49079    312.24068 
   29130   0.96315065   -10339.501    658.20735    313.53567 
   29140    0.9630891   -10338.251    778.18704     302.2214 
   29150   0.96297098   -10337.951    663.19941    303.80636 
   29160   0.96280279   -10338.394    378.97009    308.45398 
   29170   0.96260376   -10340.005    80.145273    310.06546 
   29180   0.96239583   -10343.122   -178.45368    311.87602 
   29190   0.96219718   -10347.701   -243.23845    309.30055 
   29200   0.96201356   -10354.198   -232.19432    311.62455 
   29210   0.96184314   -10362.195   -88.293784    308.86413 
   29220   0.96167677   -10371.267    49.722356    301.83411 
   29230    0.9615049   -10380.522    90.929009    299.08425 
   29240   0.96132393   -10389.509    83.612884    303.15574 
   29250   0.96113318   -10398.657    147.69457    304.91024 
   29260    0.9609281     -10407.3    292.60891    297.89682 
   29270    0.9607003   -10414.941    183.77461    293.09523 
   29280   0.96045737   -10421.526   -203.35896    299.15039 
   29290   0.96022353   -10427.301   -298.08374    298.29197 
   29300    0.9600072   -10432.461   -186.96966    294.94856 
   29310   0.95980151   -10436.912   -82.766116    295.42013 
   29320   0.95959776   -10440.607    136.61668    292.17262 
   29330   0.95938199   -10443.614    219.79368    291.49607 
   29340    0.9591458    -10445.55      363.659    288.57301 
   29350   0.95887994   -10446.437    388.78499    291.49749 
   29360   0.95858129   -10446.501    328.77422    293.87776 
   29370   0.95825301   -10446.055    328.43438    292.69657 
   29380   0.95789563   -10444.977    259.16617    292.43132 
   29390   0.95751407   -10443.466    52.783715    300.49936 
   29400   0.95712108   -10441.787    32.612213    297.50525 
   29410   0.95671981   -10440.137    81.745635    293.95995 
   29420   0.95630683    -10438.09     122.9784    292.78624 
   29430   0.95587935   -10435.251      96.2163    292.14046 
   29440   0.95543929   -10431.891   -45.391366    297.26456 
   29450   0.95499508   -10427.997   -95.603434    297.17622 
   29460   0.95455225   -10423.942   -200.72146    296.90879 
   29470   0.95411805   -10419.343   -304.44126    297.09569 
   29480   0.95370027   -10414.583   -352.30843     299.3368 
   29490   0.95330149    -10409.54   -252.93433    297.95394 
   29500   0.95291636    -10404.31   -178.81346    294.92179 
   29510   0.95253972   -10398.605   -112.53317    289.41177 
   29520   0.95216765   -10391.741   -151.24269    289.87248 
   29530   0.95180267   -10383.665   -320.39632    297.07729 
   29540     0.951455   -10375.078   -277.38045     294.9727 
   29550   0.95112446   -10366.606    -325.8628    300.37046 
   29560   0.95081438   -10358.459   -516.90285    303.02696 
   29570   0.95053863   -10351.191   -705.11761    303.86608 
   29580   0.95031116   -10345.338   -835.62365    306.70157 
   29590   0.95014128   -10340.996   -789.04897     305.8806 
   29600   0.95002776   -10338.015   -719.05463    302.78773 
   29610   0.94996687   -10335.828   -732.00927    302.48356 
   29620   0.94995975   -10334.649   -786.11138     303.7313 
   29630   0.95000941   -10333.935   -639.85896    297.46624 
   29640   0.95010819   -10333.639   -587.82789    301.01277 
   29650   0.95025192   -10333.601    -593.2771    304.52015 
   29660   0.95044153    -10334.23   -562.94672    301.31031 
   29670   0.95067575   -10335.317    -564.8711    302.27364 
   29680   0.95095383   -10336.651    -425.9481    300.08797 
   29690   0.95126775   -10338.131   -363.04192    301.65489 
   29700    0.9516143   -10340.099    -499.8106    305.55006 
   29710    0.9520022   -10342.545   -575.12504    303.12437 
   29720   0.95243775   -10345.556   -602.64877     305.7024 
   29730   0.95292241   -10349.118   -506.11211    306.21132 
   29740   0.95345008   -10353.166   -276.33372    301.82632 
   29750   0.95400615   -10357.301   -187.93715    303.40687 
   29760    0.9545827   -10361.201   -61.605969    298.13193 
   29770    0.9551719   -10364.878   -69.500804    300.99868 
   29780   0.95577278   -10368.722   -74.041687    303.90613 
   29790   0.95638517   -10372.452    71.208648     298.9328 
   29800   0.95699955   -10375.853    169.41599    296.62395 
   29810   0.95760909   -10379.072    80.714183    304.52052 
   29820   0.95821683   -10382.403    219.33886    302.51619 
   29830   0.95881348    -10385.69    510.06004     297.1729 
   29840   0.95937949   -10388.672     611.6147    298.50396 
   29850   0.95990666   -10391.661    541.21432    305.11108 
   29860    0.9603964   -10394.879    666.82576    300.44898 
   29870   0.96084313   -10398.132    599.05993    299.40848 
   29880   0.96124997    -10401.19    379.51157    303.00371 
   29890   0.96163159   -10404.836     256.4108    306.71757 
   29900   0.96199438    -10409.04    539.46798    304.21771 
   29910   0.96231965   -10413.356    930.08132    296.84241 
   29920   0.96258085   -10417.371    997.15773    298.05341 
   29930   0.96277063   -10420.864     929.7742    298.83785 
   29940   0.96289444   -10424.469    695.10049    303.22903 
   29950   0.96296777   -10428.531    460.61674    305.75739 
   29960   0.96300634   -10432.857    431.73299    299.56576 
   29970   0.96301328   -10436.984    446.82653    297.29929 
   29980   0.96298762   -10441.019    398.75251    302.68371 
   29990   0.96293073   -10444.973    505.46323    298.31114 
   30000   0.96283742   -10448.796    477.42583    297.42884 
   30010   0.96270758   -10452.124    470.61461     296.7403 
   30020   0.96254194   -10455.067    481.90882    297.26116 
   30030    0.9623395   -10457.853    415.60575     301.5088 
   30040   0.96210392    -10460.59    417.47328    296.92472 
   30050   0.96183646   -10463.033    322.13511    297.23233 
   30060   0.96154307   -10465.485    202.73729    299.06892 
   30070   0.96123314   -10467.724    32.494577    299.16723 
   30080   0.96091818   -10469.783   -65.506392    298.22928 
   30090   0.96060552   -10471.809    -121.3832     299.4112 
   30100   0.96029954   -10473.768   -184.68054    298.64039 
   30110     0.960005   -10475.654   -229.83962    295.00833 
   30120   0.95972633   -10477.327   -384.01573    300.74661 
   30130   0.95947233   -10479.175   -342.21341    302.20103 
   30140    0.9592409   -10481.198   -121.58908    296.33824 
   30150   0.95901818   -10483.084   -49.030265    293.59769 
   30160   0.95879849   -10484.263   -130.56133    292.42235 
   30170   0.95858707   -10484.902   -243.84054    294.81992 
   30180   0.95839155   -10485.133   -290.19334    297.65362 
   30190   0.95821537   -10484.912   -244.05331    292.11307 
   30200   0.95805809   -10484.288   -420.65212    294.42272 
   30210   0.95793042   -10483.418   -567.24809    299.22681 
   30220   0.95784285   -10482.665   -601.96989    306.34276 
   30230   0.95779681   -10482.758   -350.79543    302.58528 
   30240   0.95777655   -10483.342   -103.43223    298.06496 
   30250   0.95776614   -10484.395    -182.1168    303.11613 
   30260   0.95776798   -10485.647   -147.92071    300.51173 
   30270   0.95778041   -10487.306   -33.229228    298.18669 
   30280   0.95779684   -10489.253   -113.17292     302.9612 
   30290    0.9578207   -10491.979   -78.609697    299.03717 
   30300   0.95785166   -10494.923   -86.122694    294.26406 
   30310   0.95788958   -10497.986   -145.31247    294.36811 
   30320   0.95793753   -10501.055   -83.696195    288.42568 
   30330   0.95799393   -10504.124   -235.70248    293.28184 
   30340   0.95806752   -10507.291   -332.17155    295.93609 
   30350   0.95816518   -10511.145   -258.54873    290.11694 
   30360    0.9582842   -10515.612   -302.81613    293.69472 
   30370   0.95842518   -10520.836    -226.7583    295.97468 
   30380   0.95858252   -10527.212    9.6218431    295.82767 
   30390   0.95874098   -10534.517    170.82741    295.58559 
   30400   0.95888858    -10542.38    246.27758    290.82036 
   30410   0.95902023   -10550.069    174.12378    289.24628 
   30420   0.95914131   -10557.253    -84.19477    293.37309 
   30430   0.95926871   -10564.317   -250.09322    298.41828 
   30440   0.95941294   -10571.047   -39.156019    290.29102 
   30450   0.95956269   -10576.935    61.621173    288.86666 
   30460   0.95970969   -10582.074    38.704359    293.32734 
   30470   0.95985314   -10586.231    248.61221    286.04605 
   30480   0.95998142   -10589.072    237.28615    286.12806 
   30490   0.96009374   -10590.648     101.5222    289.72818 
   30500   0.96020012   -10591.181   -136.98541    292.68591 
   30510   0.96031705   -10591.195    -324.0979    298.57034 
   30520   0.96045655   -10591.007   -144.27353    295.31616 
   30530   0.96060756   -10590.497    140.55167    291.84552 
   30540   0.96075037    -10589.21    320.22044    288.36891 
   30550    0.9608707   -10586.847    480.44408    285.30177 
   30560   0.96095793   -10583.324    428.71188    294.07711 
   30570   0.96101233   -10578.561     538.9757    286.91831 
   30580    0.9610305   -10572.834    300.90745    293.61206 
   30590   0.96102537   -10566.286    161.66247    301.29087 
   30600   0.96100584   -10559.494    363.83536    292.15037 
   30610   0.96096187   -10552.535     273.2056    292.56842 
   30620   0.96089708   -10544.848    174.98003    292.88823 
   30630   0.96081859   -10536.941    161.50435    294.82068 
   30640   0.96072778    -10528.83    92.735721    299.36873 
   30650   0.96062966   -10521.471      12.2582    302.28653 
   30660   0.96052805   -10514.924    127.57664    299.71446 
   30670   0.96041717   -10509.294    114.57646     300.9246 
   30680   0.96029818   -10504.661    -30.56034    299.27401 
   30690   0.96018063   -10500.409   -179.10849     301.7544 
   30700   0.96007367   -10496.913   -111.56981    299.12851 
   30710   0.95997399    -10493.89    22.194509    296.73582 
   30720    0.9598722   -10491.004    129.71712    295.55717 
   30730   0.95976065   -10488.067    115.05014    298.06812 
   30740   0.95963969   -10485.384    62.984503     298.5821 
   30750   0.95951226   -10482.731    111.05547     294.9031 
   30760   0.95937622   -10480.292    75.819653    300.10916 
   30770   0.95923183   -10477.621    222.00163    296.10104 
   30780    0.9590717   -10475.462    155.82595    301.26402 
   30790   0.95889819   -10473.307    92.425124    299.51311 
   30800   0.95871652   -10471.617    87.665722    292.89978 
   30810   0.95852791   -10469.541   -33.708943    296.22156 
   30820   0.95833975   -10467.014   -116.81438     299.4305 
   30830   0.95815903   -10464.763    -223.2953    300.77695 
   30840   0.95799332   -10462.817   -302.19633    301.82738 
   30850   0.95784693   -10461.233    -140.8456    297.12057 
   30860   0.95770971   -10459.539    74.045647    290.74626 
   30870   0.95756832   -10457.142    -36.65304    293.80758 
   30880   0.95742901   -10453.926   -261.97728    299.33656 
   30890   0.95730765   -10450.539   -419.96344    301.91692 
   30900   0.95721698   -10447.577   -607.74089    303.85383 
   30910   0.95716982     -10445.3   -703.39333    307.40512 
   30920   0.95717215   -10443.703   -519.28217    303.10372 
   30930   0.95721265   -10442.755   -263.80609    297.80973 
   30940   0.95727313   -10441.738   -55.021078    299.81395 
   30950    0.9573379     -10440.8     142.3605    301.67713 
   30960   0.95739242    -10440.09    320.78408    299.82521 
   30970   0.95742428   -10439.308    427.13002    294.95746 
   30980   0.95742593   -10438.149    386.08585    298.93899 
   30990   0.95739854   -10436.764    389.25269    302.15257 
   31000   0.95734081   -10435.183    579.75017    296.17777 
   31010   0.95724063   -10433.289    659.97757    292.25821 
   31020   0.95709233    -10430.32    502.97132    297.77395 
   31030   0.95690542   -10426.518    320.53347    302.43558 
   31040   0.95669329   -10422.725    160.22371    305.04439 
   31050   0.95646773   -10419.259   -24.139689    306.43972 
   31060   0.95624157   -10416.408   -134.90357    304.84847 
   31070   0.95602414   -10414.295   -317.16705    309.38622 
   31080   0.95582808    -10413.43   -434.90461    311.26627 
   31090   0.95566079   -10413.849   -235.00746    299.83933 
   31100   0.95551083   -10414.608   -120.14461    292.80141 
   31110   0.95537127   -10415.105   -354.82783    298.52036 
   31120   0.95525563    -10415.52   -497.39463    303.43309 
   31130   0.95517415   -10416.448   -396.64663    299.44962 
   31140    0.9551231   -10418.068    -481.3356    303.25441 
   31150   0.95510622   -10419.973   -455.61417    297.68216 
   31160   0.95512378   -10422.373   -434.60644    299.82668 
   31170    0.9551727   -10425.077   -328.53805     303.5962 
   31180   0.95524574    -10428.34   -169.07534    298.67243 
   31190   0.95533339   -10432.179   -210.03015    303.30636 
   31200   0.95543526   -10436.424   -73.796002    297.95869 
   31210   0.95554561   -10440.915   -175.86037    297.26238 
   31220   0.95567006   -10445.878   -372.18161    303.79383 
   31230   0.95582092   -10451.467   -277.34852    301.53468 
   31240   0.95599397   -10457.601   -201.18344    300.58317 
   31250   0.95618269   -10464.063   -45.059688     295.2754 
   31260   0.95637591   -10470.147    184.37714    293.01571 
   31270   0.95655695   -10475.616    390.06848    288.82481 
   31280    0.9567119   -10479.816    410.84588    287.62155 
   31290   0.95683838   -10482.893    282.24525    290.92521 
   31300   0.95694417   -10485.196    221.94819    291.25758 
   31310   0.95703418   -10486.856     195.7332    295.07933 
   31320   0.95710895   -10488.157    326.16565    296.11323 
   31330   0.95716019   -10488.979    466.70905    290.71671 
   31340   0.95717874   -10489.114    357.47662    291.37117 
   31350   0.95717285   -10488.692   -2.4313509    298.47166 
   31360   0.95716575   -10487.853    -129.7108    297.90254 
   31370   0.95716733   -10487.095   -67.492987    297.57601 
   31380   0.95717455   -10486.538   -109.98192    304.93524 
   31390   0.95718854   -10486.254   -13.693522    296.24043 
   31400   0.95720554   -10485.904   -110.97852    295.58331 
   31410   0.95723151     -10485.4   -356.05501    300.04957 
   31420    0.9572836   -10484.977   -521.12627    299.88814 
   31430   0.95737416   -10484.864   -561.23922    301.87698 
   31440   0.95750479   -10485.102   -306.31061    296.34199 
   31450   0.95765877   -10485.104    -1.536514    290.13833 
   31460     0.957816   -10484.503   -1.0292359    291.89799 
   31470   0.95797507    -10482.74    -126.8042    290.54607 
   31480   0.95814577   -10479.592   -340.22667    294.66343 
   31490   0.95834293   -10475.605   -551.63424    303.62043 
   31500   0.95857963   -10471.495    -441.2578     304.2304 
   31510   0.95885032   -10467.527   -255.12928    298.73764 
   31520   0.95914307   -10463.192   -215.11419    295.12185 
   31530   0.95945472   -10458.087    -299.5069    300.86847 
   31540   0.95978967   -10452.644   -258.84732    302.12761 
   31550   0.96014586   -10447.401   -124.71857    303.29001 
   31560   0.96051174    -10442.03     335.2027    293.45178 
   31570   0.96085662   -10436.207    697.74273    288.03944 
   31580   0.96115479   -10428.938     666.6444    294.18248 
   31590   0.96140542   -10420.716    583.86433    294.13211 
   31600   0.96161619   -10412.353    290.79087    304.99859 
   31610   0.96180423   -10404.424    305.52688    308.19821 
   31620   0.96196971   -10398.068    583.81038    305.22739 
   31630   0.96209311   -10392.599    867.37389    299.64443 
   31640   0.96215575   -10388.021    826.74201    305.87978 
   31650   0.96215639   -10384.022    852.14434     303.0836 
   31660    0.9620962   -10381.431    600.67628    309.84846 
   31670   0.96199028   -10380.013    385.22197    315.59027 
   31680   0.96185252   -10380.634    601.53816    304.85797 
   31690   0.96167083   -10382.456    699.22356    303.23336 
   31700   0.96143684   -10384.776    655.04632    302.97474 
   31710   0.96115286   -10387.419    644.98748    299.21409 
   31720   0.96082055   -10390.474    545.72003    299.68062 
   31730   0.96044678   -10393.945     333.1543    304.81518 
   31740   0.96004565   -10398.132    200.10491    304.64596 
   31750    0.9596277   -10403.219    112.57097    302.41612 
   31760   0.95919954   -10409.101    8.3010345    302.38709 
   31770   0.95876787   -10415.438    12.128942     296.0154 
   31780   0.95833282   -10421.667    118.75051    291.67103 
   31790   0.95788901   -10427.397   -45.873479    296.90259 
   31800     0.957447   -10432.898   -331.00922    300.13291 
   31810   0.95702699   -10438.484   -532.79453     301.0694 
   31820   0.95664347   -10444.756   -533.43834    303.12156 
   31830   0.95629671   -10451.286   -399.51353    300.26247 
   31840   0.95597913   -10458.127   -398.72541    299.61192 
   31850    0.9556897   -10464.906   -430.16727     301.3019 
   31860   0.95543052    -10471.72    -399.1079    297.14335 
   31870   0.95520022   -10477.493   -349.47083    289.87685 
   31880   0.95499722    -10481.96   -536.83067     290.4308 
   31890   0.95483303   -10485.096   -748.44695    296.85821 
   31900   0.95472187   -10487.836   -782.07246    299.67486 
   31910   0.95466725   -10490.153   -689.86979     297.1785 
   31920   0.95466357   -10492.034   -597.28234    294.11252 
   31930   0.95470484    -10493.22   -601.75541    292.78932 
   31940   0.95479044   -10493.763   -557.75788    294.96685 
   31950   0.95491612   -10493.821   -300.94151    292.05221 
   31960   0.95506573   -10493.244   -142.97041    291.85051 
   31970   0.95522709   -10492.096   -94.330997    293.41022 
   31980     0.955396   -10490.922   -95.540315    299.26453 
   31990   0.95557133   -10489.586    11.871976    296.48106 
   32000   0.95574764    -10488.41    41.719232    293.12975 
   32010   0.95592245   -10487.004   -49.003423    295.80946 
   32020   0.95610194   -10485.416      -199.07    298.49631 
   32030   0.95629663   -10483.989    -295.9348    296.99568 
   32040   0.95651338    -10482.64   -275.82541    293.51289 
   32050   0.95675156   -10480.909   -248.29539     295.8584 
   32060    0.9570091   -10478.946   -226.09194    295.91504 
   32070   0.95728523   -10476.771   -252.87747    294.22226 
   32080   0.95758188   -10474.411   -336.35254    296.21878 
   32090   0.95790418   -10471.908    -368.9967    302.37938 
   32100   0.95825224   -10469.613   -33.198389    295.45736 
   32110   0.95860648   -10467.419    64.742584    298.18726 
   32120   0.95895778   -10465.045    10.148884    301.38518 
   32130   0.95930908   -10463.028    61.778537     301.0267 
   32140   0.95965655   -10461.431    257.54924     301.3451 
   32150    0.9599859   -10460.057    534.65461    296.46814 
   32160   0.96027756   -10458.568    721.58842    295.77011 
   32170   0.96051657   -10456.645     905.6816    293.40004 
   32180   0.96069135   -10454.419    858.00934    292.68249 
   32190   0.96080396   -10451.224    687.38649    294.05465 
   32200   0.96086708   -10447.397    453.13042    300.05947 
   32210   0.96089557   -10443.404    402.88878     301.8552 
   32220   0.96089351   -10439.309    500.52901    297.93009 
   32230   0.96085586   -10435.109    438.10609    300.77727 
   32240   0.96078551   -10430.426    400.58461    300.10929 
   32250   0.96068629   -10425.657    287.47726    304.88656 
   32260   0.96056423   -10421.143    290.77295    306.73494 
   32270   0.96041939   -10416.743    424.58029    302.48697 
   32280   0.96024402   -10412.685    382.20895    306.67607 
   32290   0.96003908    -10408.81    395.15749    304.82558 
   32300     0.959805   -10405.322    335.95813    302.92816 
   32310     0.959546   -10401.891    181.35093    304.36039 
   32320    0.9592717    -10398.61    176.85088    305.24816 
   32330   0.95898123   -10395.328    461.00773    302.43899 
   32340   0.95865657     -10392.3    604.99115    302.28934 
   32350   0.95828831   -10389.509    419.93902    306.65797 
   32360   0.95788779   -10387.096    248.23814     305.5352 
   32370   0.95746566   -10385.152    355.14795    297.39144 
   32380   0.95701683   -10383.308    378.37111    303.33801 
   32390   0.95653715   -10381.324    509.31668    300.41348 
   32400   0.95602111   -10379.785    359.35212    301.09787 
   32410   0.95547727   -10378.303    201.14135    300.78943 
   32420   0.95491648   -10376.784    202.21078    296.08517 
   32430   0.95434099   -10375.157    54.266179    299.94488 
   32440   0.95375898   -10373.162    63.739065    298.27281 
   32450   0.95317213    -10371.05    -17.06105    295.54361 
   32460   0.95258822   -10368.715   -395.01979    300.85826 
   32470   0.95203115   -10366.006   -504.39301     298.9378 
   32480   0.95151032   -10363.541   -444.90179    298.57122 
   32490   0.95102136    -10360.87   -350.38655    296.73819 
   32500   0.95055904   -10357.921   -402.16811    297.50392 
   32510   0.95012724   -10354.644   -621.17701    304.49541 
   32520   0.94974063   -10351.774   -755.23814    307.16902 
   32530   0.94940877   -10349.799   -715.34645    306.35371 
   32540   0.94912814   -10348.764   -459.19684    299.54909 
   32550   0.94888283   -10347.942   -377.69355    298.39981 
   32560   0.94866599   -10347.351    -484.7173    302.91824 
   32570   0.94848488    -10347.07   -636.57064    304.11913 
   32580   0.94835033   -10347.741   -759.64719    306.41242 
   32590    0.9482711   -10349.519   -752.68553    306.53082 
   32600    0.9482458   -10352.116   -539.12319    297.36421 
   32610   0.94826268   -10355.197   -573.78472    298.01559 
   32620   0.94832185    -10358.68   -648.07957    300.78879 
   32630   0.94842892   -10362.684   -710.55062    305.12223 
   32640   0.94858727   -10368.128   -632.29307    305.65253 
   32650   0.94879176   -10374.671   -463.71138    300.13549 
   32660   0.94903149   -10381.855   -401.84378    296.42706 
   32670   0.94930119   -10388.863   -333.27396     291.8233 
   32680   0.94959594   -10395.462   -251.25518    291.61886 
   32690   0.94991017   -10401.219   -271.32003    292.61466 
   32700   0.95024629   -10406.682    -506.7358    297.25043 
   32710   0.95061939   -10412.067   -680.11177    297.34671 
   32720   0.95104432   -10417.722   -924.81149    302.92126 
   32730   0.95153541   -10423.465    -823.4675    296.88102 
   32740   0.95208828   -10429.256   -694.35242    296.88735 
   32750   0.95269262   -10434.831   -575.02312    300.44536 
   32760    0.9533386   -10440.345   -321.29042     296.3068 
   32770   0.95401048   -10445.789   -281.69197    298.13948 
   32780   0.95470276   -10451.041   -213.89359    298.87988 
   32790   0.95541045   -10456.279   -122.47369     300.4768 
   32800   0.95612518   -10461.285    158.52771     295.8713 
   32810   0.95682843   -10465.819    366.88862    294.16062 
   32820   0.95750391   -10469.751    494.64655     294.8071 
   32830   0.95814238   -10473.087    509.18941    296.32313 
   32840   0.95874244    -10476.13    403.63102    301.07737 
   32850   0.95931034   -10479.339    423.53608     301.1867 
   32860   0.95984474   -10482.503    625.69233    293.56788 
   32870   0.96033252   -10485.015    746.26449    287.76626 
   32880   0.96076588   -10486.435    547.59662    294.89704 
   32890    0.9611564   -10487.558    432.31329    298.77885 
   32900   0.96151188   -10488.201    637.48268    289.38535 
   32910   0.96182116   -10488.127    648.58989    288.94439 
   32920   0.96208316   -10487.195     404.7698    293.36128 
   32930   0.96231431   -10485.786    150.00886    298.31333 
   32940   0.96253181   -10484.349    111.83609    297.65509 
   32950   0.96274044    -10482.97    54.282328    300.40841 
   32960   0.96294494    -10481.91   -88.221733    301.63744 
   32970   0.96315506   -10481.264   -139.10641    300.78596 
   32980   0.96337337   -10480.974    42.006103    298.74349 
   32990   0.96358688    -10480.45    361.04179    292.10617 
   33000   0.96377494   -10479.682      445.928    293.28602 
   33010   0.96392994   -10478.341     403.9607    298.38306 
   33020   0.96405409   -10476.951    443.44036    298.75926 
   33030   0.96414488   -10475.793    554.69432    298.12606 
   33040   0.96419432   -10474.696     690.2686    295.51002 
   33050   0.96419349   -10473.412    764.67191    293.02808 
   33060   0.96413711   -10471.745     754.9102    293.03245 
   33070   0.96402565    -10469.57     717.7088    292.14232 
   33080   0.96386279    -10466.91    579.21503    290.43361 
   33090   0.96365908   -10463.501    284.35808    292.82569 
   33100    0.9634349   -10459.919    -22.90631    300.21997 
   33110   0.96321085   -10456.788   -88.562037    300.95228 
   33120   0.96299303   -10454.594   -40.766383    301.57399 
   33130   0.96277809   -10453.139    91.621839     301.9669 
   33140   0.96255731   -10452.323    181.93147     301.7268 
   33150   0.96232396    -10452.06    275.88172    294.79829 
   33160   0.96207199   -10451.665    271.79684    289.74036 
   33170   0.96180247   -10450.858   -20.040475    301.30417 
   33180   0.96153218   -10450.379   -21.737787    304.61518 
   33190   0.96126228   -10450.536    301.69026    296.16918 
   33200   0.96097224   -10450.603    495.07633    291.70764 
   33210   0.96064912   -10450.068    327.88556    295.50754 
   33220   0.96030324   -10449.364   -12.248258    302.77255 
   33230   0.95995799    -10449.06   -241.52395    305.55779 
   33240   0.95963048   -10449.398   -280.19362    303.17258 
   33250   0.95932386    -10450.84   -221.66085    305.19755 
   33260   0.95903258   -10452.626    55.132397    292.96926 
   33270   0.95874122   -10453.944   -38.427505    289.81794 
   33280   0.95845501   -10454.831   -424.64634    302.52126 
   33290   0.95819721    -10455.48   -369.10087    294.44513 
   33300   0.95796873   -10456.164   -379.11952    293.42011 
   33310   0.95776827    -10456.11   -380.63492    294.06922 
   33320   0.95759697   -10455.737    -472.0623    295.94957 
   33330   0.95746079   -10454.998   -591.38455    299.05827 
   33340   0.95736802    -10454.29   -608.68462    298.66268 
   33350   0.95732057   -10453.789   -593.75418    296.98462 
   33360   0.95731644   -10453.142   -509.38257    297.58968 
   33370    0.9573495   -10452.394   -447.36901    299.64738 
   33380   0.95741578   -10451.865   -462.68232     299.2116 
   33390   0.95751656   -10451.242      -508.84    297.21491 
   33400    0.9576544   -10450.704     -481.709    298.29352 
   33410   0.95782692   -10449.926   -290.48159     292.4124 
   33420   0.95802147   -10448.706   -180.91815    293.31264 
   33430   0.95822961   -10446.774   -190.54656    299.43247 
   33440   0.95845118   -10444.615   -145.90968    299.89721 
   33450   0.95868255   -10442.473      57.3415    297.49279 
   33460   0.95890938   -10440.018    328.17712    290.64905 
   33470   0.95911437    -10436.97    277.03171     299.2764 
   33480   0.95929636   -10433.137    446.28019    294.26234 
   33490   0.95944629   -10428.872    569.36945    291.07453 
   33500   0.95955463   -10423.583    576.13702    298.25723 
   33510    0.9596195   -10417.704    656.81093    300.25495 
   33520   0.95963583   -10411.696    738.35756    297.61817 
   33530   0.95959955   -10405.229    577.54887    298.22769 
   33540   0.95952051     -10398.7    410.91908    301.39193 
   33550   0.95941064   -10392.134    359.95052    298.39176 
   33560   0.95927536   -10385.685    208.65948    299.36711 
   33570   0.95912527   -10379.336   -27.099817    306.54068 
   33580   0.95897513   -10373.628   -44.872812    307.05456 
   33590   0.95882905   -10369.243   -151.21229     312.7909 
   33600   0.95869368   -10366.327   -264.24916    313.56841 
   33610   0.95857839   -10365.657   -407.03204    311.18808 
   33620   0.95849258   -10366.379   -435.73379    307.84515 
   33630   0.95843857   -10368.397   -355.58208    304.40711 
   33640   0.95841119   -10371.311   -330.36278    305.28301 
   33650   0.95840731   -10375.056   -246.93499    302.36985 
   33660    0.9584229    -10379.85   -268.38228    305.08281 
   33670   0.95845762   -10385.695   -246.18058    305.99595 
   33680   0.95851057    -10393.06   -214.88224    306.42355 
   33690   0.95857894   -10401.398   -97.502897      301.308 
   33700   0.95865493   -10410.333    3.5661919    299.29445 
   33710   0.95873107   -10419.658    57.214447    300.12796 
   33720   0.95880225   -10428.671    202.90443    294.91744 
   33730    0.9588591   -10436.725    294.15567     292.2145 
   33740   0.95889469   -10443.129    313.98579    287.56035 
   33750   0.95890911   -10447.713    121.22991    289.03022 
   33760   0.95891455   -10450.826   -104.25553    295.20805 
   33770   0.95892689    -10453.32   -244.09087    301.49356 
   33780   0.95895661   -10455.673   -290.79246    303.75733 
   33790   0.95900688   -10458.303   -187.03878    301.04099 
   33800   0.95907077    -10460.76    -27.35871    297.52347 
   33810   0.95913718   -10462.844    58.790179    299.29173 
   33820   0.95919801   -10464.392    257.47242    296.15534 
   33830   0.95924053   -10465.683     414.8088     290.3662 
   33840   0.95925473   -10465.867    321.88284    287.97647 
   33850    0.9592473   -10465.357   -67.170842    298.93187 
   33860   0.95924216   -10464.545   -147.40801    299.52794 
   33870   0.95924805   -10464.209   -175.58999    303.49015 
   33880   0.95926505   -10464.491   -10.863764    302.45259 
   33890   0.95928302   -10465.183    167.92559    298.40157 
   33900   0.95928952   -10465.789     232.2724    293.99037 
   33910      0.95928   -10465.874    170.68898    292.72935 
   33920   0.95925857   -10465.668    5.2491292    301.16943 
   33930   0.95923505    -10465.62    30.948652    303.20084 
   33940    0.9592085   -10466.203    180.58762    296.73257 
   33950   0.95916887   -10466.419    330.32269    287.46136 
   33960   0.95910751   -10465.921    119.45322    295.54175 
   33970   0.95903599   -10464.741   -22.631507    298.05884 
   33980   0.95896529   -10463.644   -23.553804    298.67167 
   33990   0.95889512   -10462.712    81.910604    301.85993 
   34000   0.95881806   -10462.116    254.97114    299.95434 
   34010    0.9587226   -10461.752    306.33194    299.57948 
   34020   0.95860492   -10461.514    245.08387    297.77954 
   34030   0.95846827   -10460.937    257.84444    290.67234 
   34040   0.95831378    -10459.76    64.697839    295.00108 
   34050   0.95815309   -10458.016   -64.957227    298.28774 
   34060   0.95799605   -10455.801   -119.97004    298.10106 
   34070   0.95784716   -10453.421   -187.23396    298.39844 
   34080     0.957711   -10450.693   -220.62998     298.5063 
   34090   0.95759026   -10447.525     -246.451    302.65512 
   34100   0.95748505   -10444.285   -46.204455    299.00327 
   34110   0.95738383   -10440.599    50.490744    294.84211 
   34120   0.95728023   -10436.196   -99.406821    297.83022 
   34130   0.95718297   -10430.853   -209.86237    301.21016 
   34140   0.95709998   -10424.768   -225.14426     301.3326 
   34150   0.95703302   -10418.359   -228.05318    303.03027 
   34160   0.95698193   -10412.017   -148.60336     300.2377 
   34170   0.95694169   -10405.079    -110.3964    298.27822 
   34180    0.9569111   -10397.743   -319.59142    305.39601 
   34190   0.95690322   -10390.654   -496.93069     307.9532 
   34200   0.95693197   -10384.471   -624.54298    305.08602 
   34210   0.95700713   -10379.301   -694.51721    307.61622 
   34220   0.95713285   -10374.728   -537.05538    300.27895 
   34230   0.95730127   -10370.951   -538.98706    300.77672 
   34240   0.95751134   -10367.113    -629.6304    302.88896 
   34250   0.95776981   -10363.877   -727.60209    308.45795 
   34260   0.95808306   -10361.918   -645.38136    310.47091 
   34270   0.95844505   -10361.113   -302.82283    304.33126 
   34280   0.95883456   -10361.325   -179.32935    306.70993 
   34290   0.95924034    -10362.43   -60.521313    305.97739 
   34300   0.95965482   -10364.912   -12.940007    307.96124 
   34310   0.96007281   -10368.666    154.74512    306.59111 
   34320   0.96048271   -10373.812    389.44859    302.23987 
   34330    0.9608683   -10379.574    517.65505     295.6691 
   34340   0.96122123   -10385.843    367.98471      300.732 
   34350   0.96154896   -10392.976    302.43198    301.05034 
   34360   0.96185692   -10400.833    324.83734    298.37195 
   34370   0.96214467   -10409.222    207.19784    302.54097 
   34380   0.96241941   -10418.363    86.138477    303.17692 
   34390   0.96269036   -10428.143   -29.502113    304.24245 
   34400   0.96296597   -10438.122   -86.138942    302.20897 
   34410   0.96325058   -10447.585   -82.847997    298.34448 
   34420   0.96354451   -10456.307    -125.2139    304.24248 
   34430   0.96384841   -10464.483    74.867748    301.04806 
   34440   0.96414981   -10471.204    299.38472    294.18643 
   34450   0.96443372    -10476.63    283.66036    297.04678 
   34460   0.96469924   -10480.848     265.8845    297.50322 
   34470   0.96494862   -10484.348    145.08739    301.41221 
   34480   0.96518991   -10487.563    7.6620714    302.45198 
   34490   0.96543296   -10490.598   -8.6233605    298.92405 
   34500   0.96568002   -10493.386    -103.3197    300.43033 
   34510   0.96593858   -10496.407   -329.94857    307.30987 
   34520   0.96622245   -10499.869   -235.71278     300.4149 
   34530   0.96652753   -10503.526   -84.599491    297.76135 
   34540   0.96684278   -10506.803    32.200549    298.32724 
   34550   0.96715989   -10509.933     96.45661    295.56082 
   34560   0.96747426   -10512.659    97.479678    294.97974 
   34570   0.96778538   -10514.674    130.31843    292.54792 
   34580   0.96809124   -10516.282    103.61742    296.99612 
   34590    0.9683923   -10517.743    192.51847    297.73518 
   34600   0.96868223   -10518.899    448.97814    295.64606 
   34610   0.96894282   -10519.799    690.72748    290.65317 
   34620   0.96915767   -10519.978    665.98388    291.59916 
   34630    0.9693263   -10519.434    550.77282    297.85955 
   34640    0.9694553   -10518.562    570.16352    293.36884 
   34650   0.96954511   -10517.481    467.32582    297.35491 
   34660   0.96960013   -10516.278    524.23025    299.28451 
   34670   0.96961737   -10514.954    599.64908    296.25752 
   34680   0.96959087   -10513.497     626.0784    296.80587 
   34690   0.96951776   -10511.787    600.91102    299.92977 
   34700   0.96939857   -10510.023    535.14161    297.54243 
   34710   0.96923897   -10508.221    284.15776    303.14953 
   34720   0.96905438   -10506.651    166.11221    304.26659 
   34730   0.96885417   -10505.728    120.96026    303.08602 
   34740   0.96864106   -10505.367    103.78417    304.32298 
   34750   0.96841624   -10505.767    107.82269    306.83115 
   34760   0.96817819   -10507.414     223.6775    306.91105 
   34770   0.96791798   -10510.145    464.35195    294.62008 
   34780   0.96762152   -10513.113    334.50152    292.86503 
   34790   0.96729433   -10516.013    188.45929    295.15191 
   34800   0.96694747   -10519.034   -7.3400465    297.83506 
   34810   0.96659432   -10522.405   -201.25116      298.227 
   34820   0.96624907    -10525.96   -312.30531    292.58008 
   34830   0.96592028   -10529.586   -409.05668     294.8088 
   34840   0.96561458   -10533.173   -438.13313    295.07111 
   34850    0.9653349   -10536.845   -458.35258    295.12292 
