
variable systemNsize equal 10
variable rndSeed equal 1234
variable Nrun equal 500000
variable Nstab equal 2000
variable NdumpStats equal 10
variable NdumpFrames equal 1000
variable Text equal 298.0
variable Pext equal 1.0

units real
    # g/mol, A, fs, Kcal/mol, K, atm, g/cm^3
atom_style full
read_data SPCE.data
  orthogonal box = (0 0 0) to (3.1 3.1 3.1)
  1 by 2 by 3 MPI processor grid
  reading atoms ...
  3 atoms
  scanning bonds ...
  2 = max bonds/atom
  scanning angles ...
  1 = max angles/atom
  reading bonds ...
  2 bonds
  reading angles ...
  1 angles
  2 = max # of 1-2 neighbors
  1 = max # of 1-3 neighbors
  1 = max # of 1-4 neighbors
  2 = max # of special neighbors
  special bonds CPU = 0.000580072 secs
  read_data CPU = 0.00316 secs

replicate ${systemNsize} ${systemNsize} ${systemNsize}
replicate 10 ${systemNsize} ${systemNsize}
replicate 10 10 ${systemNsize}
replicate 10 10 10
  orthogonal box = (0 0 0) to (31 31 31)
  1 by 2 by 3 MPI processor grid
  3000 atoms
  2000 bonds
  1000 angles
  2 = max # of 1-2 neighbors
  1 = max # of 1-3 neighbors
  1 = max # of 1-4 neighbors
  2 = max # of special neighbors
  special bonds CPU = 0.000256062 secs
  replicate CPU = 0.00163007 secs

include SPCE.long
# Original model from Berendsen et al, J Phys Chem 91:6269 (1987)
# Charges and geometry are specified in the ".data" file.

mass 1 1.00794 # H
mass 2 15.9994 # O

pair_style lj/cut/coul/long 10.0
    # LJ_Rcut (Coul_Rcut)
pair_modify tail yes
    # assumtions and approximations:
    # 1) 3d bulk homogeneous liquid (+)
    # 2) RDF is unity beyond the cutoff
    # 3) It's computed at the begining of the run
    # 4) atoms don't feel additional energy but it's added to the PE etc
kspace_style pppm 1.0e-5
    # accuracy - desired relative error in forces

pair_coeff 1 1 0.00000 0.000
pair_coeff 1 2 0.00000 0.000
    # TODO - I would put here the sizes of H and O atoms instead of one big LJ repulsion from the O atom. What "e" to choose is still a question.
pair_coeff 2 2 0.65 3.166
    # epsilon, sigma, [LJ_Rcut, [Coul_Rcut]]
    # distance between H and O is 1.0 so 3.166 > 1.0 accounts for the size of a molecule as a whole
    # I guess the major part in forces inside a molecule are indeed due to OH and HOH (angle) bondings, so computing LJ and Coul for them would be practically a waste of time so it may be ommitted. So I see only an optimizational reason to set LJ coefs to 0 for H atoms inside a molecule. However here (as far as I understand) we set all LJ coefs to 0. I understand LJ is a short-rage potential so its contribution can be neglegible compared to Coul, but it's not obvious for me why it actually is.
    # TODO - there might be a more correct way to ommit unnecessary interaction by using special_bond

bond_style harmonic
    # E = k(r-r0)^2
bond_coeff 1 0.0 1.0
    # bondID k r0
    # ? - how does k=0 make sense?
    # Is this to formaly bond atoms but actual bonding is done by rattle?

angle_style harmonic
angle_coeff 1 0.0 109.47
    # ? - same, how does k=0 make sense?


velocity all create ${Text} ${rndSeed}
velocity all create 298 ${rndSeed}
velocity all create 298 1234

fix removeMomentum all momentum 1 linear 1 1 1 angular
    # 1 - adjust the momentum every 1 timesteps
    # linear 1/0 1/0 1/0 - zero the P_x/y/z
    # angular - zero angular momentum (TODO - add "angular" here?)
    # scale - scale velocities after the adjustment so T is conserved (TODO - add "scale" here?)

fix stab_iso all npt temp ${Text} ${Text} $(50.0*dt) iso ${Pext} ${Pext} $(500.0*dt)
fix stab_iso all npt temp 298 ${Text} $(50.0*dt) iso ${Pext} ${Pext} $(500.0*dt)
fix stab_iso all npt temp 298 298 $(50.0*dt) iso ${Pext} ${Pext} $(500.0*dt)
fix stab_iso all npt temp 298 298 50 iso ${Pext} ${Pext} $(500.0*dt)
fix stab_iso all npt temp 298 298 50 iso 1 ${Pext} $(500.0*dt)
fix stab_iso all npt temp 298 298 50 iso 1 1 $(500.0*dt)
fix stab_iso all npt temp 298 298 50 iso 1 1 500
    # Tstart,Tstop = external temperature at start/end of run
    # Tdamp = temperature damping parameter (time units)
    # temp - for thermostat, iso - for barostat

fix stab_constrain all rattle 1.0e-5 100 0 b 1 a 1
  0 = # of size 2 clusters
  0 = # of size 3 clusters
  0 = # of size 4 clusters
  1000 = # of frozen angles
  find clusters CPU = 0.000190973 secs
    # fix ID group-ID shake tol iter N constraint1 value1 ...
    # iter - max # of iterations in each SHAKE solution
    # print SHAKE statistics every N many timesteps (0 = never)
    # b - bonds, a - angles
    # b 1 - bonds of type 1
    # a 1 - bonds of type 1
    # shake adds forces to make the displacement satisfy constraints - e.g. |r_ij|=d
    # rattle does the same and additionally it refines velocities - e.g. (|r|)'_t = 0.
    # *should be defined after other force- and v- modifiers since it doesn't account for them

thermo_style custom step density press temp
thermo ${NdumpStats}
thermo 10
run ${Nstab}
run 2000
PPPM initialization ...
  using 12-bit tables for long-range coulomb (src/kspace.cpp:332)
  G vector (1/distance) = 0.305114
  grid = 27 27 27
  stencil order = 5
  estimated absolute RMS force accuracy = 0.00306414
  estimated relative force accuracy = 9.22755e-06
  using double precision FFTW3
  3d grid and FFT values/proc = 10880 3645
Neighbor list info ...
  update every 1 steps, delay 10 steps, check yes
  max neighbors/atom: 2000, page size: 100000
  master list distance cutoff = 12
  ghost atom cutoff = 12
  binsize = 6, bins = 6 6 6
  1 neighbor lists, perpetual/occasional/extra = 1 0 0
  (1) pair lj/cut/coul/long, perpetual
      attributes: half, newton on
      pair build: half/bin/newton
      stencil: half/bin/3d/newton
      bin: standard
Per MPI rank memory allocation (min/avg/max) = 9.834 | 10.02 | 10.29 Mbytes
Step Density Press Temp 
       0    1.0041648    50479.628    296.38482 
      10   0.99700539    41713.557     402.8505 
      20   0.97937175    22789.155    901.49031 
      30   0.96177521     15218.77    1056.9103 
      40   0.94867849    14748.859    882.75667 
      50   0.93765744    12918.763    789.12955 
      60   0.92722841    10901.396    728.08032 
      70   0.91735262     9254.458    678.18899 
      80   0.90834111    7784.9475    640.07442 
      90   0.90040603    6220.0046    627.11559 
     100   0.89358934    5316.5461    588.74077 
     110   0.88771626     4261.079    559.36092 
     120   0.88266744    2926.2155    546.81714 
     130   0.87841205    2181.7535     504.6737 
     140   0.87484694    1355.6965    477.37645 
     150   0.87191727    556.54645    454.37829 
     160   0.86960843   -205.19253    442.33721 
     170   0.86791532   -721.53417      426.825 
     180   0.86680305   -1113.2129    409.46333 
     190   0.86622839   -1501.7972    400.30291 
     200   0.86616772      -1732.1    384.95868 
     210    0.8665793   -1911.4788    371.21185 
     220   0.86742329   -2099.6493    364.72343 
     230   0.86867487   -2288.2038    362.45793 
     240   0.87031196   -2225.7725    347.17569 
     250   0.87226673   -2220.3783    338.77046 
     260   0.87448338   -2271.1277    334.29506 
     270   0.87692584   -2157.7234     325.4055 
     280   0.87952499   -1937.3082    316.86993 
     290   0.88219013   -1701.8362    309.76025 
     300   0.88484617   -1634.8818     304.3503 
     310   0.88747329   -1772.9221    305.37176 
     320    0.8901026   -1829.7784    301.48519 
     330   0.89274758   -1815.5351    303.72877 
     340   0.89539094   -1512.5218    295.67327 
     350   0.89795816     -1231.09    286.92605 
     360    0.9003909   -1173.1951    287.95332 
     370   0.90269297   -1115.1442    288.47949 
     380   0.90487322   -957.52677    286.06989 
     390   0.90692039   -902.54709    287.20466 
     400   0.90884749   -968.66976    289.92507 
     410   0.91069552   -1049.7582    296.99073 
     420   0.91249865    -928.6362    296.02121 
     430   0.91424304   -792.46129    294.04345 
     440   0.91590759     -717.948    295.39402 
     450   0.91748618   -574.99496    290.22473 
     460   0.91896475   -573.94164    292.76504 
     470   0.92035953   -622.63244    294.04262 
     480   0.92170262   -722.76282    300.74746 
     490   0.92302317   -558.41258    295.71951 
     500   0.92429446    -459.3076    293.66058 
     510   0.92549625    -370.3624    291.61963 
     520   0.92662127   -380.69936    296.52599 
     530   0.92768141   -355.44995    298.24365 
     540   0.92868383   -274.30051    294.59699 
     550    0.9296187   -216.13623    295.45982 
     560   0.93048027    -162.3768     298.9476 
     570   0.93126451   -68.617708    298.74624 
     580   0.93196352   -132.02419    302.32223 
     590    0.9326063    -268.5249    306.28362 
     600   0.93323456   -232.30767    300.96937 
     610   0.93384987    -314.3482    306.49251 
     620   0.93447022   -357.95152    310.44428 
     630   0.93510624   -211.67406    304.25863 
     640   0.93571967     45.43962    289.48236 
     650   0.93625791   -87.520468    290.43518 
     660   0.93675471   -248.50864    293.31071 
     670   0.93726011   -334.73285    297.29832 
     680   0.93779816   -442.09981    304.76244 
     690   0.93838846   -302.51345    296.86108 
     700   0.93899929    -234.0984    292.78319 
     710   0.93961017   -319.80877    294.25965 
     720   0.94024327   -423.31338    296.43105 
     730   0.94092026   -364.78737    295.45202 
     740   0.94162452    -259.9318    295.04422 
     750   0.94232445   -154.54201    291.24536 
     760    0.9429995   -280.89112     295.5347 
     770   0.94368169   -440.10075    304.07912 
     780   0.94440622   -269.76539    300.27936 
     790   0.94512974    22.661679    291.88969 
     800   0.94577511    195.58727    292.25029 
     810    0.9463016    238.37999    298.63426 
     820   0.94670532    347.62927     299.5409 
     830   0.94696883    519.38532    296.08864 
     840   0.94706216    603.28505    294.86291 
     850   0.94697982    534.82042    295.22922 
     860   0.94675971    272.65425    299.92429 
     870   0.94648585   -39.137268     308.8097 
     880   0.94623977    -32.35574     305.3209 
     890   0.94602795   -5.2546816    305.44135 
     900   0.94583176    168.75347     297.9229 
     910   0.94561636    7.1581767    299.60057 
     920   0.94542213   -335.71753    300.16321 
     930   0.94534357   -689.19902    303.32498 
     940   0.94545717   -692.07392    300.97676 
     950   0.94575389   -543.87001    297.92197 
     960   0.94618064   -493.88901    298.55981 
     970   0.94670854    -362.6407    292.61468 
     980   0.94729291   -151.37895    286.84065 
     990   0.94787129    28.881852    284.48699 
    1000   0.94839684    31.659916    290.09363 
    1010   0.94887151   -93.777797    299.66972 
    1020    0.9493263   -6.1306048    294.34726 
    1030   0.94975307   -112.71731    297.34889 
    1040   0.95017338   -146.18952    295.29089 
    1050   0.95060538   -267.31553    301.42291 
    1060   0.95107015   -102.22078    299.02639 
    1070   0.95152364    236.89769    290.20531 
    1080   0.95188561    171.88832    299.87422 
    1090   0.95216586    179.93496    301.80022 
    1100   0.95237471      125.303    308.19941 
    1110   0.95252778     175.7329    305.48969 
    1120   0.95262145    251.01566    294.49017 
    1130   0.95264598    61.471421    294.44557 
    1140   0.95265429   -241.12233    303.21482 
    1150   0.95272451    -366.7782    306.49077 
    1160   0.95289119   -356.71034    304.64114 
    1170   0.95314274   -181.68109     299.2056 
    1180   0.95342775    41.267277    294.19898 
    1190    0.9536833    168.75902    291.89678 
    1200   0.95387458    183.01524    294.43954 
    1210   0.95399947    187.41236    297.58864 
    1220   0.95406302    149.69487    301.88704 
    1230   0.95407748    133.78543    303.03708 
    1240   0.95405031    205.24866    298.24466 
    1250   0.95397008    172.73138    296.87513 
    1260   0.95384935    5.7941548    299.84431 
    1270   0.95373517   -186.17049    304.75983 
    1280   0.95367398   -125.59093    298.99475 
    1290   0.95365575   -73.052152    294.50419 
    1300   0.95365809    29.138526    288.49271 
    1310   0.95365591   -8.9611889    293.75334 
    1320   0.95365446    -49.85583     296.1088 
    1330   0.95366848   -90.586982    295.06816 
    1340   0.95371046   -195.40036    298.69045 
    1350   0.95380003   -82.581164    294.42062 
    1360   0.95390641     119.8505    293.04099 
    1370   0.95396953    356.86397    292.94969 
    1380   0.95392654     516.1939    291.33979 
    1390   0.95374687    338.54474    298.98447 
    1400   0.95347983    137.72978    302.72624 
    1410   0.95318776    37.397973    301.45516 
    1420   0.95290205   -12.963131    302.39394 
    1430   0.95263308     95.71093    295.52627 
    1440   0.95235737    66.879999    296.19084 
    1450   0.95207872   -21.940396    301.31709 
    1460   0.95181743    13.075831    300.73728 
    1470   0.95157066   -80.357188    303.29609 
    1480   0.95135905   -141.98933    301.08709 
    1490   0.95120019   -148.08193    296.95527 
    1500   0.95109312   -116.37111    295.12242 
    1510   0.95102574   -75.312323    296.33801 
    1520   0.95098462   -109.17803    303.49645 
    1530   0.95097291   -38.221665    300.96328 
    1540   0.95097585   -84.400528    305.30955 
    1550   0.95099817   -13.759079    302.25848 
    1560   0.95102254    130.25715    291.64244 
    1570   0.95101628     16.17003    291.41945 
    1580   0.95100852   -252.74096    297.00492 
    1590   0.95107539   -551.81059    302.20549 
    1600   0.95129377   -646.17657    303.30056 
    1610    0.9516833   -534.23695    304.93314 
    1620    0.9522029   -264.61187    301.30632 
    1630   0.95277308     27.67751    294.35021 
    1640   0.95331187    162.39335    294.49097 
    1650   0.95377806    224.05252    293.47842 
    1660     0.954162    148.63762    294.16156 
    1670    0.9544839    75.467136    292.34723 
    1680   0.95477234   -79.662919    295.70419 
    1690   0.95506868   -178.79008    294.21964 
    1700   0.95540711   -336.87021     298.6432 
    1710   0.95581747   -158.95917    298.63971 
    1720   0.95625294    120.92093    296.31231 
    1730    0.9566382    231.89244    295.48064 
    1740   0.95693641    403.23328    289.01073 
    1750   0.95710995    418.86658    290.94243 
    1760   0.95715651    335.09657    290.90501 
    1770   0.95710862     133.9196    288.13836 
    1780   0.95702918   -183.63775    297.03558 
    1790   0.95699664   -170.23887    298.04315 
    1800   0.95701412   -88.512439    300.81326 
    1810    0.9570555    8.8298567    301.60221 
    1820   0.95709334    102.17211     301.8772 
    1830   0.95709962    187.75113     300.4918 
    1840   0.95705628    148.40765    303.66836 
    1850    0.9569703    94.043651    309.27304 
    1860   0.95685875    97.172724    307.94768 
    1870   0.95672551    34.929641    308.74825 
    1880   0.95658816   -68.614612    307.75003 
    1890    0.9564741   -78.310364    299.74902 
    1900   0.95639217   -225.63117    304.36163 
    1910   0.95637291   -244.92277    307.43853 
    1920   0.95642521   -227.51375    308.79163 
    1930   0.95653798   -110.30322    303.32996 
    1940   0.95667723    72.876096    292.22636 
    1950   0.95679983   -59.784307    291.23167 
    1960   0.95693978   -398.25424     297.6168 
    1970   0.95718529   -569.67078    296.00592 
    1980   0.95758552    -619.5787    294.93759 
    1990   0.95814799   -527.15357    294.31881 
    2000   0.95884166   -350.15477    292.42358 
Loop time of 11.6845 on 6 procs for 2000 steps with 3000 atoms

Performance: 14.789 ns/day, 1.623 hours/ns, 171.167 timesteps/s
99.4% CPU use with 6 MPI tasks x 1 OpenMP threads

MPI task timing breakdown:
Section |  min time  |  avg time  |  max time  |%varavg| %total
---------------------------------------------------------------
Pair    | 5.1087     | 5.5955     | 5.9394     |  12.8 | 47.89
Bond    | 0.0016162  | 0.001904   | 0.002661   |   0.8 |  0.02
Kspace  | 2.4469     | 2.7936     | 3.2763     |  17.9 | 23.91
Neigh   | 0.50556    | 0.50602    | 0.5067     |   0.0 |  4.33
Comm    | 0.53557    | 0.59303    | 0.66091    |   7.1 |  5.08
Output  | 0.0052772  | 0.0062829  | 0.011081   |   2.7 |  0.05
Modify  | 1.9188     | 2.055      | 2.182      |   7.9 | 17.59
Other   |            | 0.1331     |            |       |  1.14

Nlocal:    500 ave 513 max 484 min
Histogram: 1 0 0 1 1 0 1 1 0 1
Nghost:    6805.67 ave 6836 max 6763 min
Histogram: 1 0 0 1 0 0 1 2 0 1
Neighs:    173618 ave 181461 max 158665 min
Histogram: 1 0 0 0 1 1 0 0 0 3

Total # of neighbors = 1041708
Ave neighs/atom = 347.236
Ave special neighs/atom = 2
Neighbor list builds = 107
Dangerous builds = 8
unfix stab_iso
unfix stab_constrain

reset_timestep 0
#fix iso all npt temp ${Text} ${Text} $(100.0*dt) iso ${Pext} ${Pext} $(1000.0*dt)
fix iso all nvt temp ${Text} ${Text} $(100.0*dt)
fix iso all nvt temp 298 ${Text} $(100.0*dt)
fix iso all nvt temp 298 298 $(100.0*dt)
fix iso all nvt temp 298 298 100
fix constrain all rattle 1.0e-5 100 0 b 1 a 1
  0 = # of size 2 clusters
  0 = # of size 3 clusters
  0 = # of size 4 clusters
  1000 = # of frozen angles
  find clusters CPU = 0.000276089 secs

thermo_style custom step density etotal press temp
thermo_modify flush yes
    # insures the output is dumped in the file and not buffered or something
thermo ${NdumpStats}
thermo 10
dump trj all atom ${NdumpFrames} wat.lammpstrj
dump trj all atom 1000 wat.lammpstrj

run ${Nrun}
run 500000
PPPM initialization ...
  using 12-bit tables for long-range coulomb (src/kspace.cpp:332)
  G vector (1/distance) = 0.303984
  grid = 27 27 27
  stencil order = 5
  estimated absolute RMS force accuracy = 0.00320823
  estimated relative force accuracy = 9.66148e-06
  using double precision FFTW3
  3d grid and FFT values/proc = 10880 3645
Per MPI rank memory allocation (min/avg/max) = 10.85 | 11.16 | 11.33 Mbytes
Step Density TotEng Press Temp 
       0   0.95884166   -9479.2939   -525.61289    292.42358 
      10   0.95884166    -9479.332   -400.17633    290.37824 
      20   0.95884166   -9478.1727   -294.50914    292.06056 
      30   0.95884166   -9476.1172   -278.50629    290.61148 
      40   0.95884166   -9473.2886   -379.92813     292.0651 
      50   0.95884166   -9469.4499   -371.31568    290.94414 
      60   0.95884166   -9464.9095   -460.34067    295.94234 
      70   0.95884166   -9459.5664   -385.21103     294.4626 
      80   0.95884166    -9453.675   -203.65231    288.66384 
      90   0.95884166   -9446.6788   -321.92587     292.1975 
     100   0.95884166    -9438.653   -539.42779    297.06446 
     110   0.95884166    -9430.433   -618.46663    298.11352 
     120   0.95884166    -9422.312    -652.1363    300.19968 
     130   0.95884166   -9414.9376   -650.85016     304.7486 
     140   0.95884166   -9408.4551   -347.77099    296.15477 
     150   0.95884166   -9402.6436   -42.034676    289.10103 
     160   0.95884166   -9396.5175    111.01288    290.15578 
     170   0.95884166   -9390.1859    171.34791    290.77534 
     180   0.95884166   -9383.9423    63.956788    293.49747 
     190   0.95884166   -9378.2554   -163.97155    296.65575 
     200   0.95884166   -9373.2923   -345.14331    297.59757 
     210   0.95884166   -9369.4197   -499.19276    303.49723 
     220   0.95884166     -9366.49   -320.00599      298.717 
     230   0.95884166   -9364.4251   -147.77635    297.05183 
     240   0.95884166    -9362.464   -86.017904    296.65955 
     250   0.95884166   -9360.6641   -194.87427    297.66461 
     260   0.95884166   -9359.1523   -366.47573     301.2462 
     270   0.95884166    -9358.255   -445.68295    303.44258 
     280   0.95884166   -9357.9471   -382.95899     302.1907 
     290   0.95884166   -9357.9847   -209.70734    297.09561 
     300   0.95884166   -9358.2682   -189.98555    300.37995 
     310   0.95884166   -9358.7186   -173.08983    302.11201 
     320   0.95884166   -9359.5953   -88.015889    300.11628 
     330   0.95884166   -9360.7108    55.979616    297.05088 
     340   0.95884166   -9361.7144     203.4638    294.55835 
     350   0.95884166   -9362.2692    291.08996    295.18703 
     360   0.95884166   -9362.3949    236.13595    296.76907 
     370   0.95884166   -9362.3811    185.28479    294.14361 
     380   0.95884166   -9362.0086    152.38449    294.57983 
     390   0.95884166   -9361.2136    60.586559    298.46423 
     400   0.95884166   -9360.4814   -88.488979    301.51733 
     410   0.95884166   -9360.0124   -43.573357    302.09746 
     420   0.95884166   -9360.1564    73.420725    305.37591 
     430   0.95884166   -9361.2441    190.22359    307.32063 
     440   0.95884166   -9363.3775    421.66055    302.06841 
     450   0.95884166   -9366.3297    614.97825    296.70179 
     460   0.95884166   -9369.6462    620.75254    297.43322 
     470   0.95884166   -9372.8463    579.29985    295.78498 
     480   0.95884166   -9376.7061    391.86901    306.85359 
     490   0.95884166   -9381.7345    518.86504    303.42987 
     500   0.95884166   -9388.1981    609.77907    296.97861 
     510   0.95884166   -9395.1886    577.26607    294.73094 
     520   0.95884166   -9402.6477    449.59802    299.64224 
     530   0.95884166   -9410.8131    507.89438    294.96965 
     540   0.95884166   -9418.8914    454.34498    290.11473 
     550   0.95884166   -9426.5766    208.37503    293.58333 
     560   0.95884166   -9433.6728    4.5381909     292.4399 
     570   0.95884166     -9440.35   -169.94719    295.82853 
     580   0.95884166   -9446.8183   -212.26627    298.51782 
     590   0.95884166    -9452.967   -143.14262    292.95081 
     600   0.95884166   -9458.3618   -203.70626    289.78419 
     610   0.95884166   -9462.8037   -355.84337    295.87125 
     620   0.95884166   -9466.6376   -364.14825    297.47374 
     630   0.95884166   -9470.5017   -293.83799    295.36481 
     640   0.95884166   -9473.7138   -144.55424    291.29044 
     650   0.95884166   -9476.3413   -129.85555    293.82995 
     660   0.95884166   -9477.9589   -74.411985    289.73334 
     670   0.95884166   -9478.7823   -145.73801    289.31305 
     680   0.95884166   -9478.5764   -219.69624    288.66875 
     690   0.95884166   -9477.5232   -393.76547    292.84303 
     700   0.95884166   -9475.5135   -399.55354    288.83654 
     710   0.95884166   -9472.6165   -478.32176    288.57399 
     720   0.95884166    -9468.781   -707.68009    298.15596 
     730   0.95884166   -9464.5213    -654.8051    298.22179 
     740   0.95884166   -9460.3439   -509.03964    294.69079 
     750   0.95884166   -9455.8059   -270.55941    291.15269 
     760   0.95884166   -9450.4759    -51.42976    289.85344 
     770   0.95884166   -9444.1584   -1.2886973    291.25525 
     780   0.95884166   -9437.0254    -130.9841    297.16678 
     790   0.95884166   -9429.5907   -205.03577    296.88693 
     800   0.95884166   -9422.4714   -277.62424    299.19538 
     810   0.95884166   -9415.6434    -313.5619    299.94358 
     820   0.95884166   -9409.7923   -402.46583    305.10028 
     830   0.95884166   -9405.2281   -213.84568    305.13308 
     840   0.95884166   -9402.0185    136.71801     297.4084 
     850   0.95884166   -9399.5945    230.24024    297.42778 
     860   0.95884166   -9397.2814    286.53916    294.81583 
     870   0.95884166      -9395.7    106.19005    302.23253 
     880   0.95884166   -9394.5994     59.43963    300.74306 
     890   0.95884166    -9394.301   -126.68352    302.94465 
     900   0.95884166   -9394.3819   -258.77353    299.27776 
     910   0.95884166   -9394.6106   -249.72068      295.666 
     920   0.95884166   -9394.5503   -101.28435    295.66065 
     930   0.95884166    -9394.292    -144.2944    301.88951 
     940   0.95884166   -9394.6982   -300.26919    308.16932 
     950   0.95884166   -9395.8258   -157.25116    297.30173 
     960   0.95884166   -9397.0229   -137.12332    296.86019 
     970   0.95884166   -9398.1713   -135.58615    298.47901 
     980   0.95884166   -9399.0515   -143.83697    296.04499 
     990   0.95884166   -9400.0883   -368.41115    306.42194 
    1000   0.95884166   -9401.5422   -221.03136    300.28256 
    1010   0.95884166   -9403.5714   -184.09534     295.9516 
    1020   0.95884166   -9405.5077   -246.11505    294.46583 
    1030   0.95884166   -9406.9654   -346.91101    296.36444 
    1040   0.95884166   -9408.3826   -413.48909    301.28144 
    1050   0.95884166   -9410.0326   -366.09435    300.66965 
    1060   0.95884166   -9412.0833    -304.0698    301.03981 
    1070   0.95884166   -9414.7078   -186.65103    302.03197 
    1080   0.95884166    -9417.862     23.00272    298.80584 
    1090   0.95884166   -9421.1673     130.7865    294.47997 
    1100   0.95884166   -9424.3277    64.054148    294.24744 
    1110   0.95884166   -9427.0871   -26.814487    295.48802 
    1120   0.95884166   -9429.9881   -249.09543    300.43644 
    1130   0.95884166     -9432.92   -272.65294    295.06003 
    1140   0.95884166   -9435.7362   -186.65932    290.68168 
    1150   0.95884166   -9438.1007   -138.53344    292.54365 
    1160   0.95884166    -9439.756   -19.972625    292.94109 
    1170   0.95884166   -9441.0529    74.020376    291.79389 
    1180   0.95884166   -9441.5195    166.17642    287.76702 
    1190   0.95884166   -9441.0846   -5.6313383     293.7533 
    1200   0.95884166    -9439.866    -178.9378    295.22139 
    1210   0.95884166   -9438.0964    -351.1518     294.5762 
    1220   0.95884166   -9435.8303   -463.96677    295.60244 
    1230   0.95884166   -9432.7007   -442.17208    294.71817 
    1240   0.95884166   -9428.9947   -405.14936    292.97408 
    1250   0.95884166   -9424.3482   -430.22788    293.65517 
    1260   0.95884166   -9418.3211    -447.7542    292.69788 
    1270   0.95884166   -9411.0899   -493.87744     296.1623 
    1280   0.95884166   -9402.9819   -451.76575    300.84498 
    1290   0.95884166   -9394.4031    -212.0829    295.52218 
    1300   0.95884166   -9385.4092   -151.60962    298.65585 
    1310   0.95884166   -9376.3043   -160.02056    303.22862 
    1320   0.95884166   -9367.8216   -33.224371    299.21554 
    1330   0.95884166   -9360.0342    95.426819    298.59995 
    1340   0.95884166   -9352.7339    192.30985    302.14873 
    1350   0.95884166   -9346.3964    348.22294    296.29869 
    1360   0.95884166    -9340.716    385.45114    295.10316 
    1370   0.95884166   -9334.9962     358.4177    296.75452 
    1380   0.95884166   -9330.0054    205.78665    307.46284 
    1390   0.95884166   -9326.0689    288.92371    305.29754 
    1400   0.95884166   -9323.4817     302.1704    303.55041 
    1410   0.95884166   -9322.2292    133.82328    311.10604 
    1420   0.95884166   -9321.8679    314.40085    299.85011 
    1430   0.95884166   -9322.3483    244.40725    304.03804 
    1440   0.95884166   -9323.3018    182.33262    304.63776 
    1450   0.95884166   -9325.1837    115.96126    306.26695 
    1460   0.95884166   -9327.7013    137.62084     303.5715 
    1470   0.95884166   -9330.6069    224.62852    298.32062 
    1480   0.95884166    -9333.587    80.037829    302.80397 
    1490   0.95884166   -9337.1123   -93.227372    308.80962 
    1500   0.95884166    -9341.576    5.7990719    301.21888 
    1510   0.95884166   -9346.2844   -85.570372    300.31674 
    1520   0.95884166    -9351.007   -239.68113    303.42749 
    1530   0.95884166   -9356.0001   -146.05043    300.05533 
    1540   0.95884166   -9360.9687   -119.26177    301.69544 
    1550   0.95884166   -9365.9759   -70.474929    300.24835 
    1560   0.95884166   -9370.7162   -12.398409    295.68328 
    1570   0.95884166   -9374.9046   -144.98284    300.04413 
    1580   0.95884166   -9379.2332   -236.71848    305.57018 
    1590   0.95884166    -9383.598   -88.130213    299.19809 
    1600   0.95884166   -9388.0462   -42.871581    302.13524 
    1610   0.95884166   -9392.0203    312.73924     297.1085 
    1620   0.95884166   -9395.6508    469.61197    298.36966 
    1630   0.95884166   -9398.5641    402.66212    297.39462 
    1640   0.95884166   -9401.1307     172.5163    298.03868 
    1650   0.95884166   -9403.2874   -21.868202    298.47165 
    1660   0.95884166   -9405.4069   -198.68803    302.37357 
    1670   0.95884166   -9407.3816   -172.83494    297.21214 
    1680   0.95884166   -9409.3045   -277.52595    298.33451 
    1690   0.95884166   -9410.9028   -408.94975    302.30658 
    1700   0.95884166   -9412.8277   -389.85935     304.6959 
    1710   0.95884166   -9415.1974   -100.28725    297.06944 
    1720   0.95884166   -9417.0429    159.75661    288.03525 
    1730   0.95884166   -9417.9588   -58.510136    296.97883 
    1740   0.95884166    -9418.399   -319.37746    299.25157 
    1750   0.95884166    -9419.035   -505.72935    300.20646 
    1760   0.95884166   -9419.8992   -308.36446    296.42135 
    1770   0.95884166   -9420.7073   -9.4523251    293.57844 
    1780   0.95884166   -9420.6312    149.11231    290.38158 
    1790   0.95884166   -9420.0121    190.70996    291.87968 
    1800   0.95884166   -9418.5094    200.71402    291.83583 
    1810   0.95884166   -9416.4565    43.584855    300.81039 
    1820   0.95884166   -9414.6893   -25.653402    303.26747 
    1830   0.95884166   -9413.2257   -11.921392    293.67522 
    1840   0.95884166   -9411.7839   -236.82389    296.70233 
    1850   0.95884166   -9409.6667   -284.72692    293.30749 
    1860   0.95884166   -9407.5099   -405.89421    299.64972 
    1870   0.95884166   -9405.2584   -311.24665    299.28642 
    1880   0.95884166   -9402.9343    -110.3214    294.01042 
    1890   0.95884166   -9400.3365   -148.86687    298.97067 
    1900   0.95884166   -9397.3811   -125.70777    298.57576 
    1910   0.95884166   -9394.2932   -91.723345    299.89779 
    1920   0.95884166   -9391.1496   -64.200271     300.2411 
    1930   0.95884166   -9387.8807   -63.090159    301.82052 
    1940   0.95884166   -9384.5859   -1.8188589    299.80564 
    1950   0.95884166   -9381.2051   -3.7227447    302.01654 
    1960   0.95884166   -9377.4264    59.502342    298.09834 
    1970   0.95884166   -9373.1361   -1.2312719    299.20312 
    1980   0.95884166   -9367.8465    45.850778    297.95991 
    1990   0.95884166   -9361.5626    103.82513    302.39354 
    2000   0.95884166    -9354.472    227.16033    307.02283 
    2010   0.95884166   -9346.8161    503.19051    301.25073 
    2020   0.95884166   -9338.7613    618.91691     303.1156 
    2030   0.95884166   -9329.8782    777.11735    300.91625 
    2040   0.95884166   -9321.0029    799.18823    306.98171 
    2050   0.95884166   -9312.2282    977.22753    302.09354 
    2060   0.95884166   -9303.9987    956.27119    306.99313 
    2070   0.95884166   -9296.6491    1018.1383    310.60078 
    2080   0.95884166   -9290.7088    1278.7755    300.79593 
    2090   0.95884166   -9285.6332    1201.2764    306.15052 
    2100   0.95884166   -9281.2262    1057.9537    306.74711 
    2110   0.95884166   -9278.0557    617.63847    314.49895 
    2120   0.95884166   -9277.0035    290.08557    319.47431 
    2130   0.95884166   -9278.4924    424.49888    315.71209 
    2140   0.95884166   -9282.2657    750.72029     308.7212 
    2150   0.95884166   -9287.3591    950.31983    301.86975 
    2160   0.95884166   -9293.0314    1010.8467    303.60529 
    2170   0.95884166   -9299.3503    1056.7644    304.69366 
    2180   0.95884166   -9306.6653    1026.7311    303.80626 
    2190   0.95884166   -9314.4558    892.65017    302.76916 
    2200   0.95884166   -9322.1654    883.15025    293.92651 
    2210   0.95884166   -9329.3182    624.43963    296.76145 
    2220   0.95884166   -9336.2054    191.70487    307.64238 
    2230   0.95884166   -9343.4234    42.560692    308.32765 
    2240   0.95884166   -9350.9578    173.78327    303.04868 
    2250   0.95884166   -9357.9876    316.76712     298.5235 
    2260   0.95884166    -9363.973    411.03843    293.00215 
    2270   0.95884166   -9368.3141    360.32283    290.99262 
    2280   0.95884166   -9371.7506    75.951384      302.131 
    2290   0.95884166   -9374.4636    113.87946    299.45862 
    2300   0.95884166   -9377.0965    95.091994    298.65732 
    2310   0.95884166   -9379.2384    -31.44679    300.95418 
    2320   0.95884166   -9381.8172   -99.405224    305.45907 
    2330   0.95884166   -9384.4038    77.892054    297.96733 
    2340   0.95884166   -9386.8234     117.3542    295.53318 
    2350   0.95884166   -9388.9098   0.49103615    299.85531 
    2360   0.95884166   -9390.8529   -124.46493    303.00894 
    2370   0.95884166   -9393.3268    -64.19206     304.3255 
    2380   0.95884166   -9396.2387    206.91938    297.21042 
    2390   0.95884166   -9398.9359    327.50747    294.60654 
    2400   0.95884166    -9401.189    321.94118    293.52339 
    2410   0.95884166   -9402.7425    222.62673    291.84724 
    2420   0.95884166   -9403.5193    139.60746    293.96514 
    2430   0.95884166   -9404.0103    119.52286    298.31713 
    2440   0.95884166   -9404.4314    239.88376    294.62452 
    2450   0.95884166   -9404.5735     265.1913    295.01057 
    2460   0.95884166   -9404.2232    157.61969    296.74239 
    2470   0.95884166   -9403.9128   -128.05173    303.36534 
    2480   0.95884166   -9404.2675   -334.52065    308.73698 
    2490   0.95884166    -9405.718   -159.26177    301.19127 
    2500   0.95884166    -9407.584     33.64394      295.045 
    2510   0.95884166    -9409.398   -108.04378    299.04821 
    2520   0.95884166   -9411.4398   -385.78884    301.24047 
    2530   0.95884166   -9414.3676   -620.70622    307.52716 
    2540   0.95884166   -9418.4457   -496.98472    300.34423 
    2550   0.95884166   -9423.3053   -373.02129    294.10042 
    2560   0.95884166   -9428.5119   -386.24048    295.63739 
    2570   0.95884166   -9433.8885   -397.77205    294.53776 
    2580   0.95884166     -9439.45   -500.78646    292.93018 
    2590   0.95884166   -9445.0506   -712.02671    292.14478 
    2600   0.95884166   -9450.6248   -956.19885    294.89091 
    2610   0.95884166   -9456.7088   -1112.7885    297.65107 
    2620   0.95884166   -9463.4185    -1100.799    300.46226 
    2630   0.95884166   -9471.0913   -857.33921    299.37235 
    2640   0.95884166   -9479.2767    -507.2632    291.40459 
    2650   0.95884166   -9487.2653   -436.03399    291.45143 
    2660   0.95884166   -9495.0077   -371.14548     292.4226 
    2670   0.95884166   -9501.9465    -136.9805     287.3493 
    2680   0.95884166   -9507.6095   -85.477031    283.33348 
    2690   0.95884166    -9512.206   -381.18488    293.10374 
    2700   0.95884166   -9515.9091    -439.7469    293.12611 
    2710   0.95884166   -9519.0414   -430.36395    290.25976 
    2720   0.95884166   -9521.4844   -568.74546    292.05639 
    2730   0.95884166   -9522.9891   -563.02551    285.25469 
    2740   0.95884166    -9523.194    -522.6379    285.43243 
    2750   0.95884166   -9522.0648   -504.18941    288.30563 
    2760   0.95884166    -9519.694   -528.58113    291.18784 
    2770   0.95884166   -9516.1691   -515.11409    290.35503 
    2780   0.95884166   -9511.2404   -478.40558    287.58287 
    2790   0.95884166   -9504.7879   -496.25518    289.49981 
    2800   0.95884166   -9496.2947   -410.25356    287.69542 
    2810   0.95884166   -9485.9035   -365.95593     291.1451 
    2820   0.95884166   -9473.8921   -472.08931    297.26135 
    2830   0.95884166   -9461.4067   -600.18248    299.00428 
    2840   0.95884166   -9449.9002   -555.63797    298.08658 
    2850   0.95884166   -9439.7815   -452.68191    301.27898 
    2860   0.95884166   -9431.5764   -284.12433    298.28601 
    2870   0.95884166   -9425.2063   -190.25204    296.92861 
    2880   0.95884166   -9420.2018   -152.26709    296.41491 
    2890   0.95884166   -9416.2257   -294.07637    300.62609 
    2900   0.95884166   -9413.2496   -321.58954    300.43601 
    2910   0.95884166   -9411.3098   -215.97323    298.02584 
    2920   0.95884166    -9409.639     -174.502    295.77528 
    2930   0.95884166   -9408.0258   -239.51657    296.53728 
    2940   0.95884166   -9406.2335   -169.54771    291.89997 
    2950   0.95884166   -9404.1466   -253.12503     294.9034 
    2960   0.95884166   -9401.7525   -308.18113    296.14076 
    2970   0.95884166   -9399.0836   -172.61184    293.05927 
    2980   0.95884166   -9396.2679   -75.218103    295.63119 
    2990   0.95884166   -9392.8684    73.838393    290.22578 
    3000   0.95884166   -9389.1115   -129.95517    295.50076 
    3010   0.95884166   -9384.8973   -422.27054    302.15451 
    3020   0.95884166   -9380.9155   -386.64172    297.47686 
    3030   0.95884166   -9377.0818   -270.97853    294.72138 
    3040   0.95884166   -9373.0443   -354.28193     300.0846 
    3050   0.95884166   -9369.0227   -517.38848    304.44853 
    3060   0.95884166   -9365.8633   -589.10058    307.68015 
    3070   0.95884166   -9363.6667   -371.02714    302.38161 
    3080   0.95884166   -9361.9594   -40.708158    294.85878 
    3090   0.95884166   -9359.9944     133.1446    297.11559 
    3100   0.95884166   -9357.6759    237.62535     296.6348 
    3110   0.95884166   -9355.3564    23.427617    304.54722 
    3120   0.95884166   -9353.6998    -134.3264    310.15102 
    3130   0.95884166   -9353.1633    136.53631    300.84639 
    3140   0.95884166   -9353.2468     354.3203    299.07584 
    3150   0.95884166   -9353.2818    536.95587    293.91672 
    3160   0.95884166   -9353.1096    414.78625    298.07798 
    3170   0.95884166   -9352.7418    107.98159    300.80144 
    3180   0.95884166   -9352.7165   -212.28463    301.42871 
    3190   0.95884166   -9353.3952   -473.07816     308.4421 
    3200   0.95884166   -9355.1652   -396.37157    303.99422 
    3210   0.95884166   -9357.8247   -170.85294    297.31632 
    3220   0.95884166   -9360.9613   -12.713803    298.24965 
    3230   0.95884166   -9364.4727   -45.863344    302.13018 
    3240   0.95884166   -9369.2543   -144.88014    304.27735 
    3250   0.95884166    -9375.242   -28.010707    298.96023 
    3260   0.95884166   -9382.0657    92.475912    298.14249 
    3270   0.95884166   -9389.5491    145.07676    296.31858 
    3280   0.95884166   -9397.0159    278.18715    287.97202 
    3290   0.95884166   -9404.5594    173.05531    297.07344 
    3300   0.95884166   -9411.8382    122.88424    297.19672 
    3310   0.95884166   -9419.2508    3.1105245    293.41411 
    3320   0.95884166   -9426.3371   -204.62671     299.0542 
    3330   0.95884166   -9433.5248   -289.29757    301.96605 
    3340   0.95884166   -9440.9189   -132.14053    295.89749 
    3350   0.95884166   -9447.5166    174.54267    287.66652 
    3360   0.95884166   -9452.6762    313.77266    287.43944 
    3370   0.95884166   -9456.4475    232.63301    293.64193 
    3380   0.95884166   -9459.8284   -13.128866    301.31435 
    3390   0.95884166   -9463.1097    61.764938    294.54069 
    3400   0.95884166   -9465.7469    172.06498    293.50955 
    3410   0.95884166   -9468.0013    240.31399     296.7171 
    3420   0.95884166   -9469.6877    431.47934    291.51581 
    3430   0.95884166   -9470.6761    482.08282    290.17824 
    3440   0.95884166   -9470.7044    397.58384    288.23074 
    3450   0.95884166   -9469.8061    140.52158    291.19459 
    3460   0.95884166   -9468.0447   -108.51998    295.19304 
    3470   0.95884166   -9466.0586   -91.069573    299.03782 
    3480   0.95884166   -9463.8687    215.48286    291.20129 
    3490   0.95884166    -9461.169    186.88228    291.88113 
    3500   0.95884166   -9457.6107    28.816286    295.23759 
    3510   0.95884166   -9453.6661   -105.13191    295.99202 
    3520   0.95884166   -9449.5894    -139.2501    297.46465 
    3530   0.95884166    -9444.889    3.0299936    294.30753 
    3540   0.95884166   -9439.9155    15.576334    297.78414 
    3550   0.95884166   -9434.3406    92.639571    294.67642 
    3560   0.95884166   -9428.3777  -0.87947202    295.82746 
    3570   0.95884166   -9421.6624   -93.580744    297.07811 
    3580   0.95884166   -9414.6084   -106.77552    298.19575 
    3590   0.95884166   -9407.2466   -82.296479    299.17773 
    3600   0.95884166   -9399.6168    18.886828     296.0188 
    3610   0.95884166   -9391.6258    4.8182153     299.2049 
    3620   0.95884166   -9383.6528   -105.21106    306.08247 
    3630   0.95884166   -9376.3817   -14.429864    302.24247 
    3640   0.95884166   -9370.1744   -17.106335    304.00434 
    3650   0.95884166   -9364.5877   -66.116853    300.90723 
    3660   0.95884166   -9359.8864   -143.93656    299.98057 
    3670   0.95884166   -9355.7749   -184.16622    305.48064 
    3680   0.95884166    -9352.971   -72.839541    306.53224 
    3690   0.95884166    -9351.087    190.43375    300.88093 
    3700   0.95884166   -9349.9537    432.54238    297.91453 
    3710   0.95884166   -9349.2791    498.82497    299.98252 
    3720   0.95884166   -9348.9194     399.3742    305.23017 
    3730   0.95884166   -9349.6747    248.61673    313.76623 
    3740   0.95884166     -9351.42    624.94551    300.91358 
    3750   0.95884166   -9353.0208    799.93466    296.62259 
    3760   0.95884166   -9354.4282     736.4604     299.9775 
    3770   0.95884166   -9355.3842    830.50916    296.41783 
    3780   0.95884166   -9356.2974    828.08713    300.13984 
    3790   0.95884166   -9357.0507    926.57385    298.07226 
    3800   0.95884166   -9357.8443    1000.2286    293.96244 
    3810   0.95884166   -9358.2033    793.36059    299.86817 
    3820   0.95884166   -9358.6855    615.90946    301.17009 
    3830   0.95884166    -9359.333    531.42021    300.56743 
    3840   0.95884166    -9360.638     432.5125    306.34588 
    3850   0.95884166   -9362.6202     547.5427     302.4992 
    3860   0.95884166   -9365.3351    542.74766    305.54922 
    3870   0.95884166    -9368.643    631.52111    299.83483 
    3880   0.95884166    -9372.642    589.02726    301.98263 
    3890   0.95884166   -9377.0173    644.47402    299.77746 
    3900   0.95884166   -9381.6855    585.91567    300.84069 
    3910   0.95884166   -9386.7379    514.64297    300.29135 
    3920   0.95884166   -9391.9088    344.45568    297.32286 
    3930   0.95884166   -9397.2598     50.74128    302.41442 
    3940   0.95884166   -9402.9169    16.680787    298.05671 
    3950   0.95884166   -9408.5786   -30.742898    298.04389 
    3960   0.95884166   -9414.1083    65.954455    296.91309 
    3970   0.95884166   -9419.5581    219.11299    294.36786 
    3980   0.95884166   -9424.2872    312.82204    289.20587 
    3990   0.95884166   -9427.9361    182.40716    289.79915 
    4000   0.95884166   -9430.8815   -66.776766    295.04339 
    4010   0.95884166   -9433.2969   -169.88643    295.28825 
    4020   0.95884166    -9435.454   -140.42834    293.04982 
    4030   0.95884166   -9436.7469    12.980083    287.35983 
    4040   0.95884166   -9436.9435    73.147021    286.57733 
    4050   0.95884166   -9435.9628   -26.045555    291.79048 
    4060   0.95884166   -9434.0243   -95.682387    294.15404 
    4070   0.95884166    -9431.386   -65.941537    295.32412 
    4080   0.95884166   -9428.5355    -34.40109    297.95724 
    4090   0.95884166   -9425.4319   -31.880863    296.97035 
    4100   0.95884166   -9421.9077    108.08846    289.65469 
    4110   0.95884166   -9417.3742     121.8054    291.75644 
    4120   0.95884166    -9411.462    74.914419    295.92538 
    4130   0.95884166   -9404.5752    102.07387    293.80676 
    4140   0.95884166   -9397.0056   -33.756527    297.45676 
    4150   0.95884166   -9388.7339   -174.78228    297.82139 
    4160   0.95884166   -9380.0718   -295.05174    302.50544 
    4170   0.95884166   -9371.7492   -240.39092    307.49954 
    4180   0.95884166   -9364.1285    92.844548    298.44414 
    4190   0.95884166   -9357.4741    93.155656    304.94717 
    4200   0.95884166   -9351.4098    107.11591    304.99879 
    4210   0.95884166   -9346.6668     25.22492    308.57387 
    4220   0.95884166   -9343.3197     88.73759    308.16539 
    4230   0.95884166   -9341.3433    281.51825    302.68039 
    4240   0.95884166    -9340.183    322.30773    305.68624 
    4250   0.95884166   -9339.8818    393.54172    302.96476 
    4260   0.95884166   -9340.0622    449.98481    300.05408 
    4270   0.95884166   -9340.8119    178.85647    306.56429 
    4280   0.95884166   -9342.4271   -150.97542    307.71593 
    4290   0.95884166    -9344.995   -286.39498    305.56586 
    4300   0.95884166   -9348.3909   -173.07137    302.53258 
    4310   0.95884166   -9351.9124     29.81307    297.65557 
    4320   0.95884166   -9355.1338    78.938809    296.65501 
    4330   0.95884166   -9357.9922   -64.733789    299.38533 
    4340   0.95884166   -9360.8585   -111.54952    299.26565 
    4350   0.95884166   -9363.4026   -22.924581    294.38303 
    4360   0.95884166   -9365.3133   -249.52659    301.44102 
    4370   0.95884166   -9367.3593    -355.7437    304.85952 
    4380   0.95884166   -9369.7221   -134.49947    297.63775 
    4390   0.95884166    -9371.755    78.026271    296.72439 
    4400   0.95884166   -9373.0655     305.6153    292.15713 
    4410   0.95884166   -9373.6923    335.39869    293.54304 
    4420   0.95884166   -9373.6896    210.09805    297.63379 
    4430   0.95884166   -9373.7414    15.559157    303.68513 
    4440   0.95884166   -9374.4082   -111.43275    305.78287 
    4450   0.95884166   -9375.7028   -170.72604    305.26271 
    4460   0.95884166   -9377.6686   -152.53684    303.04222 
    4470   0.95884166   -9379.5766    -112.5742     299.8708 
    4480   0.95884166   -9382.2556   -265.11749    309.67756 
    4490   0.95884166   -9385.4445   -81.555898    301.44183 
    4500   0.95884166   -9388.8092    64.094404     295.9987 
    4510   0.95884166   -9391.7211    68.057495    296.54209 
    4520   0.95884166   -9394.2783   -53.262873    297.45235 
    4530   0.95884166   -9396.9028   -325.89655    302.23195 
    4540   0.95884166   -9399.7524   -531.41287     304.5486 
    4550   0.95884166   -9403.3793   -721.65477    307.32131 
    4560   0.95884166   -9408.0084   -754.30837    306.21004 
    4570   0.95884166   -9413.3698    -555.7267    301.39896 
    4580   0.95884166   -9418.9139   -163.44136     296.3891 
    4590   0.95884166   -9424.1767     111.0527    295.47667 
    4600   0.95884166   -9428.7292    217.85768    288.60726 
    4610   0.95884166   -9432.3321   -91.060201    295.33364 
    4620   0.95884166   -9435.6731   -338.51608    301.20514 
    4630   0.95884166     -9438.75   -177.00207    291.54739 
    4640   0.95884166   -9441.6438   -182.05376    295.54423 
    4650   0.95884166   -9443.7926   -144.03358    292.48625 
    4660   0.95884166   -9445.5294   -231.52771    293.98685 
    4670   0.95884166   -9446.7457   -217.94064    293.74868 
    4680   0.95884166    -9447.356   -156.72013    291.09607 
    4690   0.95884166   -9447.4109   -330.14204    291.94079 
    4700   0.95884166    -9446.482   -540.34773    291.83967 
    4710   0.95884166   -9445.1111   -732.54744    298.38683 
    4720   0.95884166   -9443.3209   -708.28057    298.47226 
    4730   0.95884166   -9441.5161   -643.88979    297.17119 
    4740   0.95884166   -9439.3442   -539.25863    292.93544 
    4750   0.95884166   -9436.4138   -424.07107    293.19203 
    4760   0.95884166    -9432.492   -320.33838    297.41666 
    4770   0.95884166   -9427.8524   -249.56737    295.86874 
    4780   0.95884166   -9422.2106   -295.13478    292.80606 
    4790   0.95884166   -9414.9817   -348.69389    294.09854 
    4800   0.95884166   -9406.0448   -259.46092    295.79107 
    4810   0.95884166   -9395.4537   -199.66106    294.25549 
    4820   0.95884166   -9383.7774    -409.5652    302.37363 
    4830   0.95884166   -9371.7366   -379.96811    300.46939 
    4840   0.95884166   -9360.4723   -192.28784    293.59796 
    4850   0.95884166    -9349.824   -46.357366    297.33657 
    4860   0.95884166   -9340.0891    254.94817    296.93203 
    4870   0.95884166   -9331.8611    535.24535    294.66778 
    4880   0.95884166   -9324.9585    567.93201    295.11295 
    4890   0.95884166   -9318.7613    542.89936    293.98731 
    4900   0.95884166   -9313.6504    349.57098    303.98891 
    4910   0.95884166   -9309.7446    307.84132    307.47408 
    4920   0.95884166   -9307.4445    406.10679    300.96527 
    4930   0.95884166   -9306.0231     380.3735    302.21179 
    4940   0.95884166   -9305.2847    365.80073    305.26869 
    4950   0.95884166   -9305.3562    354.31929    305.02449 
    4960   0.95884166   -9306.3965    151.77872    308.51063 
    4970   0.95884166   -9308.5621   -99.477978    309.86634 
    4980   0.95884166   -9311.9052   -174.15197    306.11249 
    4990   0.95884166   -9316.3505   -196.17831    309.70416 
    5000   0.95884166   -9321.7648    113.86417    301.32892 
    5010   0.95884166   -9327.6233    240.30033     300.4843 
    5020   0.95884166   -9333.7091    198.98463    301.76418 
    5030   0.95884166   -9339.5513    154.97921    296.72988 
    5040   0.95884166   -9345.5091   -145.20108    304.89172 
    5050   0.95884166   -9351.6296   -188.59192    300.78642 
    5060   0.95884166   -9357.9876   -178.09212    300.71438 
    5070   0.95884166   -9364.1979    -89.70011    296.37846 
    5080   0.95884166   -9369.7364   -154.14992    293.70363 
    5090   0.95884166   -9374.8554   -372.35893    301.15565 
    5100   0.95884166   -9379.6942   -345.48316    297.47935 
    5110   0.95884166   -9384.4054    -486.7704    301.71088 
    5120   0.95884166   -9389.1672   -504.35493     299.1355 
    5130   0.95884166    -9393.386   -337.93498    289.59581 
    5140   0.95884166   -9396.9664   -441.84827    296.71126 
    5150   0.95884166   -9399.7652   -400.70016    291.51615 
    5160   0.95884166   -9401.9934   -530.57495    297.90872 
    5170   0.95884166   -9403.9821   -535.19126    299.62112 
    5180   0.95884166   -9406.0027   -438.13096    294.75894 
    5190   0.95884166   -9407.5829   -433.26926    291.32225 
    5200   0.95884166   -9408.5647   -533.19837    294.99896 
    5210   0.95884166   -9409.0405   -447.16911     292.7777 
    5220   0.95884166   -9409.0763   -490.34707    292.78019 
    5230   0.95884166    -9408.593    -648.3006    298.08588 
    5240   0.95884166   -9407.6961   -601.35429    294.07455 
    5250   0.95884166   -9406.5548   -698.62497    295.58645 
    5260   0.95884166   -9404.9499   -775.36022    295.66145 
    5270   0.95884166   -9403.1535   -885.12839    298.83304 
    5280   0.95884166   -9401.0853   -928.61594    297.52137 
    5290   0.95884166   -9398.9991   -1159.0293    303.44514 
    5300   0.95884166   -9397.1345   -1313.2549     305.2824 
    5310   0.95884166   -9395.9198    -1331.615    302.64253 
    5320   0.95884166   -9395.1751   -1249.9984    304.00604 
    5330   0.95884166   -9395.0156   -1065.1424    303.48907 
    5340   0.95884166   -9395.5139   -791.20688    296.05926 
    5350   0.95884166   -9395.7574   -580.69202    286.94729 
    5360   0.95884166   -9395.0657   -794.72959    297.87189 
    5370   0.95884166     -9393.98   -1030.0764    305.04629 
    5380   0.95884166   -9393.4069   -1054.4017    300.90282 
    5390   0.95884166   -9393.0805   -1066.0986    299.68521 
    5400   0.95884166    -9393.137   -1062.0868    303.61454 
    5410   0.95884166   -9393.5487    -924.1717    298.53264 
    5420   0.95884166   -9394.4211   -934.31468    300.22441 
    5430   0.95884166   -9395.5236   -850.24652    295.41012 
    5440   0.95884166   -9396.6023   -881.01308    296.65609 
    5450   0.95884166   -9397.5102   -872.70343    296.53645 
    5460   0.95884166   -9398.2653   -893.68596    296.99117 
    5470   0.95884166   -9399.1196   -906.83721    301.75085 
    5480   0.95884166   -9400.0324   -644.48351    294.94215 
    5490   0.95884166   -9401.2454    -624.6976    301.24049 
    5500   0.95884166   -9402.3687     -547.823    296.50254 
    5510   0.95884166   -9403.8539   -741.85885     298.1071 
    5520   0.95884166   -9405.0426   -911.28671    297.20032 
    5530   0.95884166   -9406.4295   -957.27224    297.46818 
    5540   0.95884166   -9407.7282   -841.48223    295.00014 
    5550   0.95884166   -9408.8912   -886.13156     298.4306 
    5560   0.95884166   -9409.8592   -856.13079    295.80354 
    5570   0.95884166   -9410.8893   -864.30193     295.4312 
    5580   0.95884166   -9411.5445   -876.16533    291.62601 
    5590   0.95884166   -9411.6104   -1026.6449     294.7386 
    5600   0.95884166   -9411.2372   -1031.2374    297.23797 
    5610   0.95884166    -9410.613   -828.25325    291.64958 
    5620   0.95884166   -9409.3832   -783.94653    292.38561 
    5630   0.95884166   -9407.4112   -752.63095    294.99596 
    5640   0.95884166   -9404.8054   -687.45588    297.40821 
    5650   0.95884166   -9401.9097   -594.59994    296.81834 
    5660   0.95884166    -9398.698   -502.17626    296.34479 
    5670   0.95884166   -9395.0112   -398.08216    296.08884 
    5680   0.95884166   -9391.0085   -454.49304    297.62547 
    5690   0.95884166   -9386.5954   -552.76246     297.1042 
    5700   0.95884166   -9381.7095   -555.03564    296.18482 
    5710   0.95884166   -9376.4738   -440.70565    295.58596 
    5720   0.95884166   -9370.7412   -369.72514    297.74923 
    5730   0.95884166    -9364.687   -435.81495    300.29851 
    5740   0.95884166   -9358.6058   -435.85241    296.00533 
    5750   0.95884166   -9352.4965   -525.42899    298.71198 
    5760   0.95884166   -9346.0807   -565.95783    299.22399 
    5770   0.95884166   -9339.9115   -607.28057    302.90995 
    5780   0.95884166   -9334.3532   -529.22885    303.23477 
    5790   0.95884166   -9329.3744   -280.25332    294.69738 
    5800   0.95884166   -9324.1435    -208.4667    293.70729 
    5810   0.95884166   -9318.6882    -353.5257    301.13284 
    5820   0.95884166   -9313.3699   -427.29647    305.47084 
    5830   0.95884166   -9309.0512   -271.84766    302.49401 
    5840   0.95884166   -9305.5647   -266.68312    303.29541 
    5850   0.95884166   -9302.6179   -421.68805    306.81435 
    5860   0.95884166   -9300.8289   -523.77135    310.41505 
    5870   0.95884166   -9300.6878   -475.54858    315.86459 
    5880   0.95884166   -9302.4075   -47.275442    304.18333 
    5890   0.95884166   -9305.2385    136.23558    302.70974 
    5900   0.95884166    -9308.605    208.08895    302.54378 
    5910   0.95884166   -9312.2301    334.83552    296.93565 
    5920   0.95884166   -9316.0909    339.87445    296.91048 
    5930   0.95884166   -9320.0232    259.64497    300.72964 
    5940   0.95884166   -9324.6242     203.5588     302.8731 
    5950   0.95884166    -9329.905    176.36155    301.10046 
    5960   0.95884166   -9336.3905   -26.063522    307.42326 
    5970   0.95884166   -9344.1696   -67.298358    305.80683 
    5980   0.95884166   -9353.0742    122.29544    295.55032 
    5990   0.95884166   -9362.2214    49.997172    298.21259 
    6000   0.95884166   -9371.8118   -48.917774    303.78218 
    6010   0.95884166   -9381.6751    83.727982    297.19735 
    6020   0.95884166   -9391.0107    44.260336    296.68119 
    6030   0.95884166   -9399.4321   -76.408712    301.10392 
    6040   0.95884166   -9407.0164   -99.275101    301.71192 
    6050   0.95884166   -9413.5248   -111.85878    300.67823 
    6060   0.95884166   -9419.0405   -137.05395    298.36644 
    6070   0.95884166   -9422.9431    17.045339    291.20454 
    6080   0.95884166   -9425.2847    86.343361     292.3797 
    6090   0.95884166   -9426.4064    147.99245    291.52821 
    6100   0.95884166   -9426.7295    119.06404    293.51419 
    6110   0.95884166   -9426.3459    121.03688    293.69712 
    6120   0.95884166   -9425.6657    95.179694    295.34466 
    6130   0.95884166   -9424.6415     144.0533    293.48221 
    6140   0.95884166   -9423.3011    131.29494    296.18759 
    6150   0.95884166   -9421.7425    129.09161    295.45763 
    6160   0.95884166   -9419.8898    81.702285    294.13074 
    6170   0.95884166   -9417.7523    27.215665    295.36966 
    6180   0.95884166   -9415.2989     90.16318    292.28399 
    6190   0.95884166   -9412.3618    -118.1833    295.02427 
    6200   0.95884166   -9409.0117   -367.29415    298.85113 
    6210   0.95884166   -9405.5976   -290.69482    297.87674 
    6220   0.95884166    -9402.261   -82.344322    295.46111 
    6230   0.95884166   -9398.7358    1.6372921    294.52626 
    6240   0.95884166   -9394.7527    11.994933    294.61672 
    6250   0.95884166   -9390.1397    6.7468826     294.5397 
    6260   0.95884166   -9385.1298    112.23185    293.57307 
    6270   0.95884166   -9379.5714    279.57755    295.27171 
    6280   0.95884166   -9373.5558    476.18604    294.23642 
    6290   0.95884166   -9367.2608    527.86674    295.65129 
    6300   0.95884166   -9360.8861    483.13202    298.42813 
    6310   0.95884166   -9354.3323    442.82679    296.81454 
    6320   0.95884166   -9348.2377    292.97465    303.04765 
    6330   0.95884166   -9342.6221    325.60294    304.00512 
    6340   0.95884166   -9337.9781    398.53517    304.84004 
    6350   0.95884166   -9334.2808    432.81344    303.95568 
    6360   0.95884166   -9331.3414     471.3491    302.69363 
    6370   0.95884166   -9329.2329    560.05153      303.107 
    6380   0.95884166   -9327.7024    685.87146    302.90659 
    6390   0.95884166    -9327.019    718.64243    303.55442 
    6400   0.95884166   -9326.7838    763.99613    302.35234 
    6410   0.95884166   -9326.9383    891.03275    300.08487 
    6420   0.95884166   -9327.4391    927.56329    298.01601 
    6430   0.95884166   -9328.1773     760.5404    299.68938 
    6440   0.95884166   -9329.1015    576.07702    302.39188 
    6450   0.95884166   -9330.6844     405.5887    304.75351 
    6460   0.95884166   -9332.9567     373.1342    301.20334 
    6470   0.95884166   -9335.7163    440.90364    297.93433 
    6480   0.95884166   -9338.9121    424.22757    298.05616 
    6490   0.95884166   -9342.4987    414.23399    295.84806 
    6500   0.95884166   -9346.2635    293.62095    297.25968 
    6510   0.95884166   -9350.6059    133.70619    297.64798 
    6520   0.95884166   -9355.2851    82.490344    296.69111 
    6530   0.95884166    -9360.963    51.473606    300.09839 
    6540   0.95884166   -9367.9569     142.7311    301.47285 
    6550   0.95884166   -9376.2785    315.75795    297.47852 
    6560   0.95884166     -9385.68    463.94462    293.62074 
    6570   0.95884166   -9395.6365    548.56019    291.21741 
    6580   0.95884166   -9405.3903    586.09071    290.79876 
    6590   0.95884166   -9414.7881    515.92121    293.86722 
    6600   0.95884166   -9423.8696     384.0725    296.44407 
    6610   0.95884166   -9432.4703    230.83241    296.70865 
    6620   0.95884166   -9440.5582    169.48978    296.05132 
    6630   0.95884166     -9447.35    272.73265    288.61377 
    6640   0.95884166   -9452.8231     91.23163    293.91462 
    6650   0.95884166   -9457.0403    1.2049936    292.28064 
    6660   0.95884166   -9460.2648    39.706163     290.9511 
    6670   0.95884166   -9462.3572    114.04802    290.40612 
    6680   0.95884166   -9463.4716    97.947544    291.42246 
    6690   0.95884166   -9463.8163    50.378622    295.45649 
    6700   0.95884166   -9463.9572    32.616172    298.55305 
    6710   0.95884166   -9463.7203    216.91363     289.7223 
    6720   0.95884166   -9462.8145    264.05267    288.49096 
    6730   0.95884166   -9460.8641    235.78581    289.66267 
    6740   0.95884166   -9458.2559    104.37502    294.77182 
    6750   0.95884166   -9455.1301    80.163611    292.53655 
    6760   0.95884166   -9451.9561    193.78548    291.42737 
    6770   0.95884166   -9448.2562    277.48676     296.1367 
    6780   0.95884166   -9444.3844    389.30029    292.75072 
    6790   0.95884166   -9440.4752    306.45842     292.9509 
    6800   0.95884166   -9436.1006    71.545718    291.10952 
    6810   0.95884166    -9431.671   -345.18338    299.86373 
    6820   0.95884166   -9427.4512    -478.2664    300.89683 
    6830   0.95884166   -9424.0455   -362.22091    298.09575 
    6840   0.95884166   -9421.0683   -136.33758    296.06023 
    6850   0.95884166   -9418.1146    139.02374    291.80401 
    6860   0.95884166   -9414.8927    229.15298    293.36322 
    6870   0.95884166   -9411.5198    243.58108    296.79593 
    6880   0.95884166   -9408.2443    287.15938     298.4823 
    6890   0.95884166   -9405.3138    337.95384    293.95284 
    6900   0.95884166   -9402.3759    206.43884    299.01377 
    6910   0.95884166   -9399.9934    133.97379    305.43773 
    6920   0.95884166   -9398.2937     277.0867    302.31049 
    6930   0.95884166   -9397.7221    304.98602    303.59841 
    6940   0.95884166   -9397.4207    410.16163    293.57913 
    6950   0.95884166   -9396.9051    396.80172    292.59155 
    6960   0.95884166    -9395.967    370.28899    299.55566 
    6970   0.95884166   -9395.1245    377.51375    302.62404 
    6980   0.95884166   -9394.8558    485.95126    302.30181 
    6990   0.95884166   -9395.0875    625.32233    297.49897 
    7000   0.95884166   -9395.3179    548.05008    299.29766 
    7010   0.95884166   -9395.7355    406.10982    302.82387 
    7020   0.95884166   -9396.7232    323.20478    304.61772 
    7030   0.95884166   -9398.2664    376.66611    296.43082 
    7040   0.95884166   -9399.5688    271.11511    295.47554 
    7050   0.95884166   -9400.7748   -25.601136    304.78848 
    7060   0.95884166   -9402.3867   -208.58123    306.57282 
    7070   0.95884166   -9405.2664   -183.86078    304.81911 
    7080   0.95884166   -9408.3765    38.725138    295.13607 
    7090   0.95884166   -9411.4856   -21.883787    296.22597 
    7100   0.95884166   -9414.2846   -178.67348    298.87675 
    7110   0.95884166   -9416.9336   -164.21835    294.92647 
    7120   0.95884166   -9419.1418   -122.91679    293.84895 
    7130   0.95884166    -9420.778   -237.00046    294.36147 
    7140   0.95884166   -9422.1454   -378.76634     295.0253 
    7150   0.95884166    -9423.027   -334.16691    292.19941 
    7160   0.95884166   -9423.3884   -129.71574    288.96531 
    7170   0.95884166   -9422.4354     81.64482    285.47313 
    7180   0.95884166    -9420.464   -55.693924     291.6958 
    7190   0.95884166   -9417.1072   -210.54434    292.14594 
    7200   0.95884166   -9412.9703   -331.63788    296.66621 
    7210   0.95884166   -9408.2437   -304.10806    298.86524 
    7220   0.95884166   -9402.8584   -212.98972    291.17372 
    7230   0.95884166     -9396.47   -473.51581    300.26166 
    7240   0.95884166   -9388.6763   -580.76305    303.86775 
    7250   0.95884166    -9380.355   -478.41508    301.31029 
    7260   0.95884166   -9371.0744   -320.25504    300.49132 
    7270   0.95884166   -9360.3439   -89.004726     299.6874 
    7280   0.95884166   -9348.5469    121.45751    300.73709 
    7290   0.95884166   -9335.4225    284.04256    297.40897 
    7300   0.95884166   -9321.9517     180.2846     302.8741 
    7310   0.95884166   -9308.9671    192.09999    302.22166 
    7320   0.95884166   -9297.8528    174.80281    306.37572 
    7330   0.95884166   -9289.1567    156.90204    311.65098 
    7340   0.95884166   -9283.5681    157.93548    308.78433 
    7350   0.95884166   -9280.3733    196.68256    306.52969 
    7360   0.95884166   -9278.9443    301.07319    306.79862 
    7370   0.95884166   -9278.5994    396.51021    303.65024 
    7380   0.95884166   -9279.1445    242.32165    307.08809 
    7390   0.95884166   -9280.5291    137.31612    307.65985 
    7400   0.95884166   -9283.0888    90.332471    310.68721 
    7410   0.95884166    -9286.394    89.202068    306.72751 
    7420   0.95884166   -9290.5059   -94.213009    306.29247 
    7430   0.95884166   -9295.4257   -303.04745    310.20341 
    7440   0.95884166   -9300.9213   -304.21355    302.11129 
    7450   0.95884166    -9306.796   -378.63787    302.94231 
    7460   0.95884166   -9312.5309   -302.59644    303.42415 
    7470   0.95884166   -9318.7469   -210.54781    303.77429 
    7480   0.95884166   -9325.3815    -292.1567    304.65943 
    7490   0.95884166   -9332.2443     -426.521    303.45493 
    7500   0.95884166    -9338.971   -358.06634    295.47588 
    7510   0.95884166   -9344.7995   -255.95957    293.99409 
    7520   0.95884166   -9349.9294   -249.65269    297.20235 
    7530   0.95884166   -9354.7636   -181.79828     297.1589 
    7540   0.95884166   -9359.0397   -128.80088    296.12838 
    7550   0.95884166   -9363.1785   -221.60365    299.41002 
    7560   0.95884166   -9366.8176   -146.91322    293.78391 
    7570   0.95884166   -9369.9879   -61.352037    293.98407 
    7580   0.95884166    -9372.604   -61.610729    297.14475 
    7590   0.95884166   -9374.8531   -80.636788    296.12872 
    7600   0.95884166   -9377.1441   -209.70766    299.94448 
    7610   0.95884166   -9379.5659   -175.69661    301.10151 
    7620   0.95884166   -9382.2379    79.805252    299.67913 
    7630   0.95884166   -9385.2057    310.46848    297.52548 
    7640   0.95884166   -9388.3053    355.42455     298.8269 
    7650   0.95884166   -9391.1335    407.47095     292.9846 
    7660   0.95884166   -9393.6113    388.25892    290.63559 
    7670   0.95884166   -9395.3995    264.64897    295.06317 
    7680   0.95884166   -9396.9982    103.68022    303.56094 
    7690   0.95884166   -9399.1429    133.94134    305.30704 
    7700   0.95884166   -9402.3183    208.16592    305.50311 
    7710   0.95884166   -9406.8232    248.04732    305.72353 
    7720   0.95884166   -9412.3149    386.88593     296.0223 
    7730   0.95884166    -9418.123    412.32663     294.2736 
    7740   0.95884166   -9423.7319    352.52419    296.59207 
    7750   0.95884166   -9429.6545    377.09923    296.93224 
    7760   0.95884166   -9435.8407    445.48442    292.87997 
    7770   0.95884166   -9441.6436    408.23991    291.70254 
    7780   0.95884166   -9447.2231    186.68639    294.91579 
    7790   0.95884166   -9453.0064    12.944689    297.77575 
    7800   0.95884166   -9458.5542     244.6088    286.20318 
    7810   0.95884166   -9463.7373    216.09397    290.74238 
    7820   0.95884166   -9467.9861     189.9561    288.27231 
    7830   0.95884166   -9471.8653    3.2636187    292.35975 
    7840   0.95884166   -9475.1182   -84.588691     293.3747 
    7850   0.95884166    -9478.315   -177.00279    297.92128 
    7860   0.95884166    -9481.899   -209.20411    298.98308 
    7870   0.95884166   -9485.7577   -127.67692    288.15629 
    7880   0.95884166   -9489.4411   -256.86289    289.39186 
    7890   0.95884166   -9492.7357   -333.26911    289.41738 
    7900   0.95884166   -9495.5161   -459.08814    289.09839 
    7910   0.95884166   -9498.0465   -701.99254    294.00315 
    7920   0.95884166   -9500.8082    -862.4343    297.85794 
    7930   0.95884166    -9503.825   -700.77517    290.99481 
    7940   0.95884166   -9506.6475   -603.35541    287.62645 
    7950   0.95884166   -9508.8792   -621.26974    288.35747 
    7960   0.95884166   -9509.8454   -531.70791    284.97105 
    7970   0.95884166   -9509.9546   -594.87358    292.44059 
    7980   0.95884166   -9508.8876   -318.58646    286.53235 
    7990   0.95884166   -9506.5367   -75.024739    287.67302 
    8000   0.95884166   -9502.5919    36.532467    290.99905 
    8010   0.95884166   -9497.3793   -98.049474    295.32338 
    8020   0.95884166   -9491.3472   -240.98233    295.90899 
    8030   0.95884166   -9484.7044   -282.12825    293.16211 
    8040   0.95884166   -9477.4586   -408.19732    299.30189 
    8050   0.95884166   -9469.8255   -392.26728    299.86036 
    8060   0.95884166   -9462.5183   -363.79585    301.02731 
    8070   0.95884166    -9455.588   -294.63035    301.28537 
    8080   0.95884166   -9449.1222   -168.28361    295.49246 
    8090   0.95884166   -9443.0229   -247.49727    301.12224 
    8100   0.95884166   -9436.9791    -128.3378     298.2733 
    8110   0.95884166   -9431.4785    78.714264    295.67501 
    8120   0.95884166   -9426.0675    233.09879     297.5774 
    8130   0.95884166   -9420.6539     270.4441    298.70786 
    8140   0.95884166   -9415.5654    160.57152    303.14065 
    8150   0.95884166   -9411.1179    240.67047    298.13188 
    8160   0.95884166   -9407.0984    306.80916    298.87315 
    8170   0.95884166   -9403.1238    287.81731    298.75863 
    8180   0.95884166     -9399.43   -4.6878215    302.15177 
    8190   0.95884166   -9396.3531   -318.13212    308.85048 
    8200   0.95884166    -9394.299   -274.28325     302.2899 
    8210   0.95884166   -9393.1405   -322.06807    302.01231 
    8220   0.95884166   -9392.2681   -329.21338    301.08539 
    8230   0.95884166   -9391.7233   -289.26577    298.28811 
    8240   0.95884166   -9391.4055    -294.4529    299.95737 
    8250   0.95884166   -9391.2347   -186.55797    303.30655 
    8260   0.95884166   -9391.7783    30.671784    301.83019 
    8270   0.95884166   -9392.7655    152.92991    300.16725 
    8280   0.95884166   -9394.0447    247.67216    299.55298 
    8290   0.95884166   -9395.4328    372.61616    297.49079 
    8300   0.95884166   -9397.2004    446.54009    301.90769 
    8310   0.95884166   -9399.4612     520.1515     300.9739 
    8320   0.95884166   -9402.3119    454.41633    300.72138 
    8330   0.95884166   -9406.2231    286.59433    304.25685 
    8340   0.95884166   -9411.4259    149.91664    305.65641 
    8350   0.95884166   -9418.4352    62.603449    302.71471 
    8360   0.95884166   -9426.9928    -59.61435    304.11006 
    8370   0.95884166   -9437.6195   -121.61186    305.31604 
    8380   0.95884166   -9448.9993    172.75653      288.068 
    8390   0.95884166   -9459.6086    200.26655    288.78065 
    8400   0.95884166   -9468.8138    93.627198    290.66073 
    8410   0.95884166   -9476.8804   -231.36544    294.32646 
    8420   0.95884166   -9483.9033   -340.15519    293.94797 
    8430   0.95884166   -9489.4887   -194.48362    288.59263 
    8440   0.95884166    -9493.578   -143.54106    290.65078 
    8450   0.95884166   -9496.3193   -189.78278    289.26459 
    8460   0.95884166   -9498.0847   -503.83665    293.04014 
    8470   0.95884166   -9498.7038   -680.36243    292.51836 
    8480   0.95884166   -9498.8644   -745.54855    293.91096 
    8490   0.95884166   -9498.5666   -711.56957    294.98859 
    8500   0.95884166   -9498.1096    -690.5492    297.72572 
    8510   0.95884166   -9497.4058   -611.64925    295.89657 
    8520   0.95884166   -9496.5284   -522.62509    295.48181 
    8530   0.95884166   -9495.4932   -269.05712    290.67955 
    8540   0.95884166   -9493.6712    -119.5045     286.8186 
    8550   0.95884166   -9490.8252   -327.52666     291.4019 
    8560   0.95884166   -9487.1593    -452.3735    290.99183 
    8570   0.95884166   -9483.0207   -591.53098     296.3944 
    8580   0.95884166   -9478.8761   -605.25391    297.86723 
    8590   0.95884166   -9474.8211   -475.21056    293.42716 
    8600   0.95884166   -9470.7514   -447.00162    296.79613 
    8610   0.95884166   -9466.4098   -342.50066    291.80292 
    8620   0.95884166   -9462.1575    -442.9386    293.48486 
    8630   0.95884166   -9457.4689   -573.04532    296.42977 
    8640   0.95884166   -9453.1187   -607.10944    297.25282 
    8650   0.95884166   -9448.7441   -515.63365    289.29935 
    8660   0.95884166   -9444.3517   -552.33498    293.28097 
    8670   0.95884166   -9439.6494   -459.17733    297.53828 
    8680   0.95884166   -9435.2947   -264.40064    292.06854 
    8690   0.95884166    -9431.081   -298.27148    296.39618 
    8700   0.95884166   -9427.1879   -403.10701    297.56051 
    8710   0.95884166    -9423.988   -605.73087    297.86591 
    8720   0.95884166   -9421.1468   -723.50731    301.89378 
    8730   0.95884166   -9419.1752    -606.7902    303.53488 
    8740   0.95884166   -9417.8496    -289.0899    298.00832 
    8750   0.95884166   -9417.0269   -183.11569    297.92404 
    8760   0.95884166   -9415.8511   -122.76211    294.07924 
    8770   0.95884166   -9414.6564    25.497459     291.0849 
    8780   0.95884166    -9413.048    139.20622    296.55462 
    8790   0.95884166   -9411.1667    335.10838    294.69307 
    8800   0.95884166   -9409.3159    306.11203    294.95892 
    8810   0.95884166   -9407.1303    214.45658    294.41796 
    8820   0.95884166   -9404.5621    273.11487    290.77302 
    8830   0.95884166   -9401.4511    167.03916    293.62792 
    8840   0.95884166   -9398.0782   -36.174669    299.82757 
    8850   0.95884166   -9395.0212   -67.823459    302.98504 
    8860   0.95884166   -9392.5329    108.33001    295.28483 
    8870   0.95884166   -9390.0017   -55.999607    296.12529 
    8880   0.95884166   -9387.3665   -361.50457    299.56232 
    8890   0.95884166    -9385.064   -563.75575     303.2894 
    8900   0.95884166   -9383.0406   -447.07346    299.24829 
    8910   0.95884166   -9381.5144   -281.40396    297.46413 
    8920   0.95884166   -9379.9928   -184.52996    298.60963 
    8930   0.95884166    -9378.356   -43.569218    295.08316 
    8940   0.95884166    -9376.222    25.557968    291.75703 
    8950   0.95884166   -9373.8035   -191.24589    300.66306 
    8960   0.95884166   -9371.2981    -273.5203    300.86324 
    8970   0.95884166   -9369.2432   -305.42357    303.37638 
    8980   0.95884166   -9367.4533   -310.14378    306.14598 
    8990   0.95884166    -9366.587   -224.83559    300.43859 
    9000   0.95884166   -9365.9323   -245.96902    299.85529 
    9010   0.95884166   -9365.6701   -290.41497    304.66893 
    9020   0.95884166    -9365.833   -144.84615    299.24821 
    9030   0.95884166   -9366.5481   -190.09811    300.57697 
    9040   0.95884166   -9367.7073   -337.85276    304.51498 
    9050   0.95884166    -9369.831   -423.29575    303.63546 
    9060   0.95884166   -9373.4309   -513.18543    302.77111 
    9070   0.95884166   -9378.4583   -555.24324    299.29425 
    9080   0.95884166   -9385.2535   -669.35199    305.43733 
    9090   0.95884166   -9394.3349   -497.35948    303.90896 
    9100   0.95884166   -9405.0442   -232.05049      294.069 
    9110   0.95884166   -9416.7551   -389.77108    298.72491 
    9120   0.95884166   -9428.4562   -411.19883    295.47757 
    9130   0.95884166   -9439.6052   -494.69734    297.13069 
    9140   0.95884166   -9449.6516   -480.35189    291.47647 
    9150   0.95884166   -9457.9585   -487.76732    289.19407 
    9160   0.95884166    -9464.678   -515.20456    294.78517 
    9170   0.95884166    -9469.971   -317.09782    288.50039 
    9180   0.95884166   -9473.4746   -260.87735    281.86919 
    9190   0.95884166   -9475.3377   -572.87765    286.40689 
    9200   0.95884166   -9475.6695   -941.96354    293.50626 
    9210   0.95884166   -9475.5653   -1147.8196    300.62073 
    9220   0.95884166   -9475.4609   -1003.9774    296.52795 
    9230   0.95884166   -9475.2261   -822.16955    293.64657 
    9240   0.95884166    -9474.542   -673.84638    289.26925 
    9250   0.95884166   -9472.8938   -698.28721    288.13522 
    9260   0.95884166   -9470.1624   -848.43892    293.34841 
    9270   0.95884166   -9466.7001   -921.48169     296.7959 
    9280   0.95884166    -9463.162   -961.85272     299.8903 
    9290   0.95884166   -9459.5394   -882.92946    297.26245 
    9300   0.95884166   -9456.0825   -764.51115    295.15934 
    9310   0.95884166   -9452.2168   -693.42803    296.87955 
    9320   0.95884166   -9447.9848   -648.05362    297.27213 
    9330   0.95884166   -9443.6508   -581.05517    296.57608 
    9340   0.95884166   -9438.9667   -516.91331    295.74871 
    9350   0.95884166   -9433.9378   -366.43163    290.17926 
    9360   0.95884166   -9427.8577    -277.1026    285.07485 
    9370   0.95884166    -9420.489   -444.23124    289.80424 
    9380   0.95884166   -9411.9582   -714.71989    295.85206 
    9390   0.95884166   -9403.2191   -985.99844    300.82181 
    9400   0.95884166   -9395.1676   -922.11136    301.10548 
    9410   0.95884166   -9388.1762   -739.63208    302.71252 
    9420   0.95884166   -9382.3057   -571.13218    303.34769 
    9430   0.95884166   -9377.8244   -371.56089    301.37848 
    9440   0.95884166   -9374.1114   -134.26088    295.67566 
    9450   0.95884166    -9370.753   -50.092034    297.55494 
    9460   0.95884166   -9367.7731    51.910123    297.50921 
    9470   0.95884166   -9364.9682    215.29088    288.91626 
    9480   0.95884166   -9361.6244    164.13678    290.72084 
    9490   0.95884166   -9358.1466   -115.57666    302.25895 
    9500   0.95884166   -9355.3863   -208.64522    304.50876 
    9510   0.95884166   -9353.5331   -150.45056    300.27579 
    9520   0.95884166   -9352.2784   -111.03288    296.21312 
    9530   0.95884166   -9350.9965   -124.66046     293.8406 
    9540   0.95884166   -9349.5424   -198.11232    295.38203 
    9550   0.95884166    -9348.046   -258.24912    299.34661 
    9560   0.95884166   -9346.6294   -173.91616     300.8575 
    9570   0.95884166   -9345.5025   -77.448961    300.43555 
    9580   0.95884166   -9344.8039   -45.025536    299.05153 
    9590   0.95884166   -9344.2847   -28.695581    298.00375 
    9600   0.95884166   -9343.6948    52.722135    295.72878 
    9610   0.95884166   -9342.9456   -34.345209    299.99394 
    9620   0.95884166   -9342.6038   -146.89021    305.39331 
    9630   0.95884166   -9342.9325   -63.364265    302.81754 
    9640   0.95884166   -9344.0053    8.7941793    301.72429 
    9650   0.95884166   -9345.2294    200.44028     296.1671 
    9660   0.95884166   -9346.4508    335.83373    297.73746 
    9670   0.95884166    -9347.619     393.3642    300.97042 
    9680   0.95884166    -9349.148    470.64589    296.29946 
    9690   0.95884166   -9350.5323    429.17447     294.5224 
    9700   0.95884166   -9351.7818    133.97348    305.12998 
    9710   0.95884166   -9353.9849   -91.157434    310.35617 
    9720   0.95884166   -9357.4476   -62.969428    300.35867 
    9730   0.95884166   -9361.9041   -174.85156    302.71092 
    9740   0.95884166   -9367.5838   -282.60299    305.16441 
    9750   0.95884166   -9374.6191   -143.83532    299.84039 
    9760   0.95884166   -9382.6523    7.3719641    296.72816 
    9770   0.95884166   -9391.2584    3.9315028    297.84245 
    9780   0.95884166   -9401.0359   -82.172615    304.09546 
    9790   0.95884166   -9411.9419    68.139283    300.56649 
    9800   0.95884166   -9423.2678    210.07772    296.74081 
    9810   0.95884166   -9434.2741    219.32961    295.71675 
    9820   0.95884166   -9443.9608    218.41901     292.0088 
    9830   0.95884166   -9451.9355    154.89987    292.43452 
    9840   0.95884166   -9457.9846    220.87667    291.78439 
    9850   0.95884166   -9462.2086    308.65919    290.99083 
    9860   0.95884166   -9464.9987    391.14633    290.16306 
    9870   0.95884166   -9466.0129    512.21232    280.24573 
    9880   0.95884166   -9465.4015    290.02925    288.10591 
    9890   0.95884166   -9463.4067    134.37434    287.22671 
    9900   0.95884166   -9460.9748     -231.328    292.11752 
    9910   0.95884166   -9458.3115   -487.13654    298.94902 
    9920   0.95884166   -9455.8531   -302.92518    293.69787 
    9930   0.95884166   -9453.3139   -97.628854    291.49819 
    9940   0.95884166   -9450.3609   -110.76591    293.01993 
    9950   0.95884166   -9446.9756   -302.77424    295.82112 
    9960   0.95884166   -9443.5122     -323.876    293.19897 
    9970   0.95884166   -9439.7937   -225.98869    295.04192 
    9980   0.95884166   -9435.7638   -35.279687    292.50159 
    9990   0.95884166   -9431.3996   -9.2459301    293.25603 
   10000   0.95884166   -9426.6399   -63.195292      298.014 
   10010   0.95884166   -9421.9585   -35.186082      298.036 
   10020   0.95884166   -9417.5149   -11.338742    300.97123 
   10030   0.95884166   -9413.3667     47.65117    299.98419 
   10040   0.95884166   -9409.6069   -2.1482647    300.21473 
   10050   0.95884166   -9406.4392   -202.79781    304.60732 
   10060   0.95884166   -9404.0125   -297.39731    304.19823 
   10070   0.95884166   -9402.0813   -255.29405    298.23392 
   10080   0.95884166   -9400.5346   -228.52707    297.68962 
   10090   0.95884166   -9398.6816   -191.79821    297.87646 
   10100   0.95884166   -9396.9366   -119.90196    298.37083 
   10110   0.95884166   -9395.2855    19.630476    299.56205 
   10120   0.95884166   -9393.6077    215.66272    298.93476 
   10130   0.95884166   -9392.0024    384.43403    297.06784 
   10140   0.95884166   -9390.3193    426.55564    294.65222 
   10150   0.95884166   -9388.1295    282.14945    297.71035 
   10160   0.95884166   -9385.6319     43.57095    302.68735 
   10170   0.95884166   -9383.3897   -82.073373    303.72818 
   10180   0.95884166    -9381.467   -78.472709    302.59475 
   10190   0.95884166   -9380.2179   -121.25935    306.59019 
   10200   0.95884166   -9379.6119   -7.7445906    301.98533 
   10210   0.95884166   -9379.7357   -33.843825    302.60373 
   10220   0.95884166   -9380.3876   -18.141581    302.26686 
   10230   0.95884166   -9381.5603    173.57045    298.31106 
   10240   0.95884166   -9383.2563    321.57096    298.06954 
   10250   0.95884166   -9385.1269     346.4284    295.96026 
   10260   0.95884166    -9387.357    278.02431    300.53617 
   10270   0.95884166   -9390.2203    375.25173    299.29289 
   10280   0.95884166   -9393.8955     304.9926    304.04174 
   10290   0.95884166   -9398.9254    394.59841    302.29654 
   10300   0.95884166   -9404.7792    551.78776    292.50804 
   10310   0.95884166   -9411.0246    304.76717    299.94103 
   10320   0.95884166   -9418.1014    169.99649    302.88207 
   10330   0.95884166   -9425.8978    138.60639     296.6245 
   10340   0.95884166   -9433.8689   -182.11182    296.22058 
   10350   0.95884166   -9442.0265   -563.37486    302.68831 
   10360   0.95884166   -9450.5804   -643.42796    302.98018 
   10370   0.95884166   -9459.2248   -555.08732    297.16175 
   10380   0.95884166   -9467.2051   -565.68591    293.74499 
   10390   0.95884166   -9474.5953    -737.1496    298.70339 
   10400   0.95884166   -9481.4829   -832.77473     301.4302 
   10410   0.95884166   -9487.9916   -757.27741    298.03495 
   10420   0.95884166   -9494.1126   -685.99601    294.53445 
   10430   0.95884166   -9499.0675    -610.7099    289.62937 
   10440   0.95884166    -9502.829   -689.05223    293.44439 
   10450   0.95884166   -9505.9192   -680.95203    294.28794 
   10460   0.95884166   -9507.9361   -437.47354    283.99331 
   10470   0.95884166   -9508.7512   -406.04755    284.88604 
   10480   0.95884166    -9508.101    -473.1816    287.30918 
   10490   0.95884166   -9506.0543    -698.9742     291.9746 
   10500   0.95884166    -9503.253   -917.13771    295.70878 
   10510   0.95884166   -9500.2815   -895.60041    295.29904 
   10520   0.95884166   -9496.9389   -696.87118     290.5582 
   10530   0.95884166   -9493.0219   -668.63594     293.5241 
   10540   0.95884166   -9488.2318   -633.17572    294.44876 
   10550   0.95884166   -9483.0943   -567.58275    293.95476 
   10560   0.95884166   -9477.5788   -455.34218    288.81519 
   10570   0.95884166   -9471.1544   -409.33552    286.44905 
   10580   0.95884166    -9463.685   -431.70461    289.54195 
   10590   0.95884166   -9455.5858   -463.51642    295.90857 
   10600   0.95884166   -9447.3671   -376.92905    294.52383 
   10610   0.95884166   -9439.6285   -388.87692      294.799 
   10620   0.95884166    -9432.528    -495.7648    298.19099 
   10630   0.95884166   -9426.0996   -288.88001     289.7911 
   10640   0.95884166   -9420.2083   -187.25015    291.99409 
   10650   0.95884166    -9414.414   -83.481263    291.74432 
   10660   0.95884166   -9408.9155   -35.473462    290.64942 
   10670   0.95884166   -9403.6281   -62.805096    293.23176 
   10680   0.95884166   -9398.6701   -83.424996    291.51028 
   10690   0.95884166   -9393.9833   -278.02106    294.21185 
   10700   0.95884166   -9389.5213   -528.81051    301.77461 
   10710   0.95884166   -9385.8553   -560.95227    301.76671 
   10720   0.95884166   -9383.1617   -477.81249    304.21666 
   10730   0.95884166   -9381.2622   -205.99044    302.69008 
   10740   0.95884166   -9379.9621     126.8445     296.3486 
   10750   0.95884166   -9378.9219    222.71818    298.76039 
   10760   0.95884166   -9377.8172    357.13114    298.00929 
   10770   0.95884166   -9376.9942    410.38521     300.8959 
   10780   0.95884166   -9376.2088     375.4893     299.2466 
   10790   0.95884166   -9375.9027    169.35039    301.43969 
   10800   0.95884166   -9375.9254   -17.706737    304.72984 
   10810   0.95884166   -9376.6624   -46.277307    301.66907 
   10820   0.95884166   -9377.9526    -63.95851    302.02211 
   10830   0.95884166   -9379.7685   -65.955552    304.80563 
   10840   0.95884166   -9382.4557    40.847301    304.40337 
   10850   0.95884166   -9385.7128    361.02792    294.58794 
   10860   0.95884166   -9388.6827    528.57349    289.19119 
   10870   0.95884166   -9390.9962    342.23985    296.95963 
   10880   0.95884166    -9393.331    196.18342    300.84174 
   10890   0.95884166   -9395.9202    252.27381     293.6385 
   10900   0.95884166   -9398.2197    262.67705    292.44625 
   10910   0.95884166   -9400.2495    280.80962    297.77277 
   10920   0.95884166     -9402.39    355.72986     298.7591 
   10930   0.95884166   -9404.9035    341.37113    302.43944 
   10940   0.95884166   -9407.9614    532.20399    297.58471 
   10950   0.95884166   -9411.2995    718.20332    292.24476 
   10960   0.95884166   -9414.6154    724.38766    291.38853 
   10970   0.95884166    -9417.133    665.42806    287.12847 
   10980   0.95884166   -9419.3218    243.00791    297.90291 
   10990   0.95884166   -9421.3321    128.87816    296.56075 
   11000   0.95884166   -9423.6356    57.021086    296.40045 
   11010   0.95884166   -9426.2286   -109.82173    300.94071 
   11020   0.95884166    -9429.351   -17.039894    294.93019 
   11030   0.95884166   -9432.6074    95.622668    292.77412 
   11040   0.95884166     -9435.89     147.2602    291.57615 
   11050   0.95884166   -9438.5961    80.121893    288.76739 
   11060   0.95884166   -9440.8346   -137.13602    289.03641 
   11070   0.95884166   -9442.0819   -421.92483    291.00185 
   11080   0.95884166   -9442.9604   -770.97839    300.05367 
   11090   0.95884166   -9443.9681   -811.45541    299.02275 
   11100   0.95884166   -9445.3381   -685.90437    298.11941 
   11110   0.95884166   -9446.6691   -326.56347    291.86422 
   11120   0.95884166   -9447.7614   -132.50457    297.58569 
   11130   0.95884166   -9448.4421    74.886007    292.12084 
   11140   0.95884166   -9448.5715    100.21846    287.20987 
   11150   0.95884166   -9447.8183    -15.38592    292.84125 
   11160   0.95884166   -9445.7779    101.10295    285.53653 
   11170   0.95884166   -9442.6667   -71.658656    292.56263 
   11180   0.95884166    -9438.066   -273.32026    295.87934 
   11190   0.95884166   -9432.9085   -460.06607    298.27679 
   11200   0.95884166   -9427.3709   -513.66578    300.50014 
   11210   0.95884166   -9421.8862   -394.43179    302.18448 
   11220   0.95884166   -9416.4044   -146.71797    298.75662 
   11230   0.95884166   -9410.8723    18.137247    293.18324 
   11240   0.95884166   -9404.7846     68.51828    293.44988 
   11250   0.95884166   -9398.0973   -9.5602486    299.84889 
   11260   0.95884166   -9391.3269   -7.8919104    298.60417 
   11270   0.95884166   -9384.7573    14.990031    296.77612 
   11280   0.95884166   -9378.2594    -2.010014    297.09842 
   11290   0.95884166   -9371.6354   -16.344066    296.25448 
   11300   0.95884166   -9365.1537   -15.755196    299.67353 
   11310   0.95884166    -9359.037    107.60813    301.82898 
   11320   0.95884166   -9353.5261    293.29382    298.85846 
   11330   0.95884166   -9348.7129    244.52871    303.70086 
   11340   0.95884166   -9344.5012    291.61223    300.80857 
   11350   0.95884166   -9340.9319    270.91184    298.93934 
   11360   0.95884166   -9337.8367    72.551095    306.53303 
   11370   0.95884166   -9335.5053   -52.320006    306.31555 
   11380   0.95884166    -9334.556   -188.38985    310.99397 
   11390   0.95884166   -9334.9889   -73.730921    307.33198 
   11400   0.95884166   -9336.6776    55.639195    305.33998 
   11410   0.95884166   -9339.1345    127.42781     304.2861 
   11420   0.95884166    -9342.632   -79.580794    312.53678 
   11430   0.95884166   -9347.8199   -153.68822    312.96049 
   11440   0.95884166   -9354.3678    -64.10751    305.86376 
   11450   0.95884166   -9362.2159   -84.917144    307.88426 
   11460   0.95884166   -9370.4048    95.480105     299.5849 
   11470   0.95884166   -9378.5013    100.08547    300.35331 
   11480   0.95884166   -9386.1419    10.527853    302.61684 
   11490   0.95884166   -9393.0791   -94.585364    298.05338 
   11500   0.95884166   -9399.4749    -401.0001    300.65825 
   11510   0.95884166   -9404.7664   -498.14664    298.77575 
   11520   0.95884166   -9409.3344   -399.55529    298.37178 
   11530   0.95884166   -9412.8466   -179.15916    292.00562 
   11540   0.95884166   -9415.3792   -235.76248    296.75812 
   11550   0.95884166   -9417.0745   -159.99163    295.91022 
   11560   0.95884166   -9418.3597   -153.52829    296.25721 
   11570   0.95884166      -9419.4   -191.48705    298.55032 
   11580   0.95884166   -9420.1465   -108.48387    294.02292 
   11590   0.95884166   -9420.5295   -184.47085    293.07067 
   11600   0.95884166   -9420.2139   -336.00736    292.63887 
   11610   0.95884166   -9419.4429    -535.5847    297.03786 
   11620   0.95884166   -9418.5329   -658.01186    300.90478 
   11630   0.95884166   -9417.8959   -634.92954    300.34743 
   11640   0.95884166   -9417.5918   -505.15986    297.12346 
   11650   0.95884166   -9417.1574   -416.72422    293.70077 
   11660   0.95884166   -9416.4336   -465.54202    292.75767 
   11670   0.95884166   -9414.9328   -515.36075    291.76314 
   11680   0.95884166    -9412.803   -746.42428    301.27898 
   11690   0.95884166   -9410.6866   -801.90743    299.48552 
   11700   0.95884166   -9408.9697   -782.75937    299.06613 
   11710   0.95884166   -9407.3518   -664.96363    299.02741 
   11720   0.95884166   -9405.6691   -523.38285    295.55042 
   11730   0.95884166   -9403.5862   -531.97754    294.39675 
   11740   0.95884166   -9401.0613   -563.68816    295.71311 
   11750   0.95884166   -9398.1186   -530.44533    298.21854 
   11760   0.95884166   -9394.8327    -465.5763    299.43402 
   11770   0.95884166     -9391.49   -447.46268    303.55009 
   11780   0.95884166   -9388.5142    -350.5016    302.31596 
   11790   0.95884166   -9385.7755   -236.12609    299.57568 
   11800   0.95884166   -9383.1347   -93.805541    298.04563 
   11810   0.95884166   -9379.7962    104.80641     291.1988 
   11820   0.95884166   -9375.5303    85.549009    292.40717 
   11830   0.95884166   -9369.7383    -17.63427    294.72448 
   11840   0.95884166   -9363.0327   -256.64623     302.1431 
   11850   0.95884166   -9355.6992   -360.90945    307.19635 
   11860   0.95884166   -9348.4838   -135.86201    304.09036 
   11870   0.95884166   -9341.5063    134.87386    299.72381 
   11880   0.95884166   -9334.4675    136.49218    307.21643 
   11890   0.95884166   -9327.6263    239.95558    305.79222 
   11900   0.95884166   -9321.8209    281.72511    308.51469 
   11910   0.95884166   -9316.5934     471.4322    303.77571 
   11920   0.95884166   -9312.1593    564.42163    304.50864 
   11930   0.95884166    -9307.999     609.1133    305.86252 
   11940   0.95884166   -9304.7953    566.52541    309.33568 
   11950   0.95884166   -9302.6289    504.86497    308.78609 
   11960   0.95884166   -9301.5274    488.82139    305.19427 
   11970   0.95884166   -9301.5751    302.37075    308.53186 
   11980   0.95884166   -9302.7791    135.71407    307.37887 
   11990   0.95884166   -9305.4923    38.825604    310.05648 
   12000   0.95884166   -9310.2388    36.606447    311.65474 
   12010   0.95884166   -9317.3721    30.005606    305.74507 
   12020   0.95884166   -9326.7786   -125.94271    308.42641 
   12030   0.95884166   -9338.7883   -172.16269    310.94191 
   12040   0.95884166   -9352.8448   -42.423005     304.4847 
   12050   0.95884166   -9367.3245     107.8948    299.69086 
   12060   0.95884166   -9380.1329    243.67887    293.63727 
   12070   0.95884166   -9390.5218    260.99582    293.84344 
   12080   0.95884166   -9398.3521    228.41513     293.9901 
   12090   0.95884166   -9404.3069    76.706547    296.71515 
   12100   0.95884166    -9408.927   -100.54373    300.48483 
   12110   0.95884166   -9413.1684   -277.34225    303.92698 
   12120   0.95884166   -9417.2534   -406.70183    301.91118 
   12130   0.95884166   -9421.1974   -456.69647    301.01713 
   12140   0.95884166   -9424.9311    -337.1617    299.83612 
   12150   0.95884166   -9428.5983   -231.00354    299.91886 
   12160   0.95884166   -9432.2062   -188.30651    300.95315 
   12170   0.95884166   -9435.8475   -89.414463    299.63925 
   12180   0.95884166   -9439.5486   -54.782801    298.68438 
   12190   0.95884166   -9443.3105   -64.835368     298.6632 
   12200   0.95884166   -9447.0469   -56.900676    300.69688 
   12210   0.95884166   -9451.0699    25.136608    301.42612 
   12220   0.95884166   -9455.2262    182.14075    294.29561 
   12230   0.95884166   -9458.7576    164.14575    291.19503 
   12240   0.95884166   -9461.8012    14.135528    296.58295 
   12250   0.95884166   -9464.4782    147.03206    295.50207 
   12260   0.95884166   -9466.7064    402.52272    287.89271 
   12270   0.95884166   -9468.1477    110.15415    297.10877 
   12280   0.95884166   -9469.3249   -136.73427    300.63389 
   12290   0.95884166    -9470.615   -81.929055    294.36715 
   12300   0.95884166   -9471.8632   -141.29987    298.91456 
   12310   0.95884166   -9472.9976   -101.71057    295.16126 
   12320   0.95884166    -9474.087     -155.899    294.26921 
   12330   0.95884166   -9474.6867   -207.21944     292.9383 
   12340   0.95884166   -9475.0025   -312.33312    299.58297 
   12350   0.95884166   -9475.0742   -226.77932    295.36259 
   12360   0.95884166   -9475.1024   -259.08917    295.81223 
   12370   0.95884166   -9474.9503   -259.21813    297.40386 
   12380   0.95884166   -9474.1743   -74.034035    290.21821 
   12390   0.95884166   -9472.8845   -71.227624    293.31943 
   12400   0.95884166   -9470.6706   -174.93521    298.59818 
   12410   0.95884166   -9468.1458   -287.37864    299.92104 
   12420   0.95884166   -9465.5818   -235.42193     297.7124 
   12430   0.95884166   -9462.6574   -102.76594    296.49383 
   12440   0.95884166    -9458.987    46.743334    290.91469 
   12450   0.95884166   -9454.1055    59.796254    289.49744 
   12460   0.95884166   -9447.6969   -121.65264    296.68865 
   12470   0.95884166    -9440.023     -181.162    298.87778 
   12480   0.95884166   -9431.9157   -209.36654    299.91813 
   12490   0.95884166   -9423.4176   -231.67442    300.47253 
   12500   0.95884166   -9415.0333   -228.30319    301.57557 
   12510   0.95884166   -9406.8488     -208.572    302.80732 
   12520   0.95884166   -9399.4352   -105.92456    302.12526 
   12530   0.95884166   -9392.7106    81.081964    299.54906 
   12540   0.95884166   -9386.5765       1.8685    307.72816 
   12550   0.95884166   -9381.5261   -47.601147     305.9356 
   12560   0.95884166   -9377.7179    -85.96723    303.10234 
   12570   0.95884166   -9374.8515   -175.16901    306.08807 
   12580   0.95884166   -9372.7022   -29.775197    300.45764 
   12590   0.95884166   -9371.2651    5.5093815    301.31299 
   12600   0.95884166   -9370.0103    82.503617    298.02369 
   12610   0.95884166   -9368.8959    195.65255    295.85897 
   12620   0.95884166   -9367.8453    36.119429     304.9927 
   12630   0.95884166    -9367.125    1.4872001    301.66133 
   12640   0.95884166   -9367.2686     70.50228    298.91067 
   12650   0.95884166   -9367.3917    194.84554     300.0442 
   12660   0.95884166   -9367.7283    291.68155    300.11161 
   12670   0.95884166   -9368.2814     385.5226    297.55823 
   12680   0.95884166   -9368.9723    394.30689    298.50801 
   12690   0.95884166   -9369.8601    290.43046    302.78628 
   12700   0.95884166    -9371.204    194.16875    304.06273 
   12710   0.95884166   -9373.6551    99.510514    307.09495 
   12720   0.95884166   -9377.6667    114.20579    306.61944 
   12730   0.95884166   -9383.4513    198.52743     302.0043 
   12740   0.95884166   -9390.8858    77.124224    301.13373 
   12750   0.95884166    -9400.479   -182.96378    306.38615 
   12760   0.95884166   -9412.7609   -295.78438    306.51197 
   12770   0.95884166   -9427.1747   -194.90171    301.89034 
   12780   0.95884166   -9441.8241    108.93006    292.05422 
   12790   0.95884166   -9454.7133    98.491897    293.38991 
   12800   0.95884166   -9465.2347   -93.182762    292.86637 
   12810   0.95884166   -9473.2247   -229.01031    289.73722 
   12820   0.95884166   -9478.9582   -300.58347    295.25308 
   12830   0.95884166   -9483.1901    -308.8213    296.64328 
   12840   0.95884166    -9486.686   -375.22377    298.08629 
   12850   0.95884166   -9489.4091   -334.52853    296.22484 
   12860   0.95884166   -9491.7214   -287.63186     292.2193 
   12870   0.95884166   -9492.9297   -426.24596    292.67447 
   12880   0.95884166   -9493.7856    -720.3115    299.48649 
   12890   0.95884166   -9494.3969   -827.38759    298.32387 
   12900   0.95884166   -9495.0944   -820.02836    297.15751 
   12910   0.95884166   -9495.5179   -649.71276    292.84552 
   12920   0.95884166   -9495.3058   -440.47465    287.55301 
   12930   0.95884166    -9494.245   -532.52685    289.63138 
   12940   0.95884166   -9492.1967   -717.65865    292.33343 
   12950   0.95884166    -9489.248    -741.3334     291.9449 
   12960   0.95884166   -9485.6666   -802.48788    293.49809 
   12970   0.95884166   -9481.5081   -727.74094    292.77197 
   12980   0.95884166   -9476.5801   -562.30802    291.20483 
   12990   0.95884166   -9470.9141   -486.81071    292.85758 
   13000   0.95884166   -9464.4069   -446.55739    289.51592 
   13010   0.95884166   -9457.1563   -518.89675    291.74528 
   13020   0.95884166   -9449.3579   -567.12869    297.07709 
   13030   0.95884166   -9441.4055   -494.79898     294.6817 
   13040   0.95884166   -9433.9237    -448.5575    298.15717 
   13050   0.95884166   -9426.6465   -198.24891      295.953 
   13060   0.95884166   -9419.8849   -9.6349462    295.29205 
   13070   0.95884166    -9413.631   -21.454138     295.8686 
   13080   0.95884166   -9407.6588   -208.20475    296.81528 
   13090   0.95884166   -9402.3022   -367.12407    296.59069 
   13100   0.95884166   -9397.2399   -259.59886    293.72095 
   13110   0.95884166   -9392.5393   -214.16693     298.6339 
   13120   0.95884166   -9388.2783   -232.82601    297.87188 
   13130   0.95884166   -9384.4254   -317.94326    298.11807 
   13140   0.95884166   -9381.1443   -351.06301    299.83392 
   13150   0.95884166    -9378.209   -238.02146    297.38555 
   13160   0.95884166   -9375.7946   -251.90777    300.34823 
   13170   0.95884166   -9373.3457    -325.4777    297.03158 
   13180   0.95884166   -9371.2142   -400.73287    297.21677 
   13190   0.95884166   -9369.2146   -348.41667    301.59393 
   13200   0.95884166   -9367.6518   -220.18578     300.5339 
   13210   0.95884166    -9366.429    -81.01432    296.15833 
   13220   0.95884166   -9365.1112   -2.6151183     294.4208 
   13230   0.95884166   -9363.4434   -196.59117    300.84447 
   13240   0.95884166   -9361.9763   -295.49008    303.34804 
   13250   0.95884166   -9361.2644   -357.43185    304.96923 
   13260   0.95884166   -9361.3036   -324.14222    301.25374 
   13270   0.95884166   -9361.9858   -335.26317    304.97416 
   13280   0.95884166   -9363.3134   -158.21323    302.70326 
   13290   0.95884166   -9365.2193    18.480035    296.76616 
   13300   0.95884166    -9367.049   -111.38469     295.2623 
   13310   0.95884166    -9368.724   -405.04119    297.39222 
   13320   0.95884166   -9370.6335   -601.91351    301.28697 
   13330   0.95884166   -9372.8663   -581.03235    300.73481 
   13340   0.95884166   -9375.7843    -555.7211    301.03397 
   13350   0.95884166   -9379.3282   -496.73034    298.25917 
   13360   0.95884166   -9383.4329   -507.79079    298.00369 
   13370   0.95884166   -9388.3764   -617.20663    303.15327 
   13380   0.95884166   -9394.3292   -452.67508    297.63518 
   13390   0.95884166   -9401.3802   -220.53393    292.93683 
   13400   0.95884166   -9409.0664   -85.549518    290.74004 
   13410   0.95884166   -9416.6294   -80.577889     287.4127 
   13420   0.95884166   -9424.0121   -356.07937    294.03367 
   13430   0.95884166   -9432.1312   -492.43989    296.83303 
   13440   0.95884166   -9440.3298   -344.08382    289.18491 
   13450   0.95884166   -9448.3559   -305.36274    288.67398 
   13460   0.95884166   -9455.3052   -247.43503    284.26806 
   13470   0.95884166   -9461.0373   -263.13488     283.3113 
   13480   0.95884166   -9465.2277   -389.30234    286.39424 
   13490   0.95884166   -9468.3996   -481.48372    290.31642 
   13500   0.95884166   -9470.6076   -374.89615    290.95059 
   13510   0.95884166   -9472.1973   -193.11143    289.02567 
   13520   0.95884166   -9472.6068    -96.64857    283.53634 
   13530   0.95884166   -9471.5187   -375.12151    287.65187 
   13540   0.95884166   -9469.2105   -814.52298    299.51534 
   13550   0.95884166   -9466.1931   -825.68919    295.77328 
   13560   0.95884166   -9462.6769   -674.42553    288.75896 
   13570   0.95884166   -9457.7291   -716.26759    290.52952 
   13580   0.95884166   -9451.0607   -841.74413       296.82 
   13590   0.95884166   -9442.8619   -891.07426    298.12212 
   13600   0.95884166   -9433.5853   -831.58818    295.96228 
   13610   0.95884166     -9423.13   -715.85453    296.74372 
   13620   0.95884166   -9411.8057   -601.64339    299.62995 
   13630   0.95884166   -9400.3215   -476.53377    300.20677 
   13640   0.95884166   -9389.4576   -428.65431    302.56722 
   13650   0.95884166   -9379.9384   -240.04479    302.31758 
   13660   0.95884166    -9371.932    23.616695    298.92378 
   13670   0.95884166   -9365.4209    45.546699    302.00563 
   13680   0.95884166   -9360.1163    83.011983    303.39305 
   13690   0.95884166   -9356.4925     83.15267    306.49169 
   13700   0.95884166   -9354.0683     164.4121    303.76457 
   13710   0.95884166   -9352.7463    249.42141    301.28094 
   13720   0.95884166   -9352.1961     240.5148    304.70345 
   13730   0.95884166   -9352.2303    287.91011    300.57816 
   13740   0.95884166   -9352.6087    167.35925    303.37438 
   13750   0.95884166     -9353.77    20.397356    307.61961 
   13760   0.95884166   -9355.7131   -37.579951    302.71712 
   13770   0.95884166   -9358.2151   -197.74826    305.31437 
   13780   0.95884166    -9361.216   -125.05547    301.82382 
   13790   0.95884166   -9364.6151   -58.748384    300.54172 
   13800   0.95884166   -9367.9477    5.3812756    297.80369 
   13810   0.95884166   -9371.2668    81.443121     295.2413 
   13820   0.95884166   -9374.0979    51.525951    294.84993 
   13830   0.95884166   -9376.6599   -222.92398    298.62563 
   13840   0.95884166   -9379.1581   -490.83047      301.955 
   13850   0.95884166   -9382.1905   -638.92225    303.06537 
   13860   0.95884166   -9385.5529   -669.89708    300.69968 
   13870   0.95884166   -9389.0844    -589.3087      294.121 
   13880   0.95884166   -9392.3563   -558.24826    294.80482 
   13890   0.95884166   -9395.2884   -511.43364    300.28355 
   13900   0.95884166    -9398.412   -371.23186    301.27424 
   13910   0.95884166   -9402.0314   -236.43091    297.06874 
   13920   0.95884166   -9405.4349   -172.82667    295.41361 
   13930   0.95884166   -9408.8714   -80.795958    298.65901 
   13940   0.95884166   -9412.1389    246.63496    294.46594 
   13950   0.95884166   -9415.2967    305.19829    294.43782 
   13960   0.95884166    -9418.292     123.8713    297.86615 
   13970   0.95884166   -9421.2402    13.642587    297.09069 
   13980   0.95884166   -9424.4652   -23.902519    294.37964 
   13990   0.95884166   -9427.5625   -166.54904    297.05232 
   14000   0.95884166   -9431.0319   -220.61836    296.59792 
   14010   0.95884166    -9434.521   -100.33973    293.31499 
   14020   0.95884166   -9438.1288   -51.862417    294.51523 
   14030   0.95884166    -9441.921   -173.66228    298.45301 
   14040   0.95884166   -9446.3216   -334.81387    296.70505 
   14050   0.95884166   -9452.0389   -655.55445    304.67422 
   14060   0.95884166   -9459.7507   -604.47022    300.62743 
   14070   0.95884166   -9468.8888   -334.08754    287.65764 
   14080   0.95884166    -9478.481    -324.8619    291.59165 
   14090   0.95884166   -9488.1891    -161.6099    288.26039 
   14100   0.95884166   -9497.1867   -47.241638    281.27717 
   14110   0.95884166   -9504.6174   -237.98738    283.80836 
   14120   0.95884166   -9511.1193   -534.93545     294.5286 
   14130   0.95884166   -9516.6394   -415.55033    287.76804 
   14140   0.95884166    -9521.253   -393.99673    288.72266 
   14150   0.95884166   -9524.5918   -481.96959    289.43891 
   14160   0.95884166   -9527.0558   -563.38951    285.79613 
   14170   0.95884166   -9528.2574   -548.45829    284.72716 
   14180   0.95884166   -9527.8901   -464.48286    285.91277 
   14190   0.95884166   -9526.0826   -295.65426    284.20429 
   14200   0.95884166   -9522.4113   -393.37196    285.43645 
   14210   0.95884166   -9517.3377   -784.50603    294.66366 
   14220   0.95884166   -9511.2475   -867.79898    290.93028 
   14230   0.95884166   -9504.4249   -839.43233    293.43981 
   14240   0.95884166   -9496.6935   -782.71396    296.29468 
   14250   0.95884166   -9488.3635   -673.43479    294.40079 
   14260   0.95884166   -9480.0567   -629.50793    295.70793 
   14270   0.95884166   -9471.6213    -414.6147    290.57329 
   14280   0.95884166   -9463.1567   -317.46185     287.8853 
   14290   0.95884166   -9454.6129   -539.07063    299.07746 
   14300   0.95884166   -9446.8353    -545.1715    299.34197 
   14310   0.95884166    -9440.497   -405.08006    291.72659 
   14320   0.95884166   -9435.1061   -496.58308    297.49832 
   14330   0.95884166   -9430.4376   -414.21129    298.00327 
   14340   0.95884166   -9426.8517   -331.78611    298.39573 
   14350   0.95884166   -9424.0367   -253.67925    296.42163 
   14360   0.95884166   -9421.4937   -155.49582    293.40002 
   14370   0.95884166   -9418.9106   -158.93505    293.76766 
   14380   0.95884166   -9416.2783   -265.49098    296.10434 
   14390   0.95884166   -9413.6449   -289.63662    294.10112 
   14400   0.95884166   -9410.8167   -283.29529    296.32704 
   14410   0.95884166   -9408.2755   -348.47117    307.29589 
   14420   0.95884166   -9406.4833   -127.65459    298.79901 
   14430   0.95884166   -9405.1903    -115.6282    299.05471 
   14440   0.95884166   -9404.1192   -151.45492    303.51161 
   14450   0.95884166   -9403.2737    48.298481    293.78592 
   14460   0.95884166   -9402.5856    115.08984    297.21725 
   14470   0.95884166   -9401.4001    217.64578    299.49699 
   14480   0.95884166   -9400.5027    235.31922    301.90804 
   14490   0.95884166   -9399.8712    220.97669    295.58467 
   14500   0.95884166   -9399.0901    136.54815    294.55977 
   14510   0.95884166   -9398.0624    110.76293    297.99632 
   14520   0.95884166   -9396.7037    111.75763    297.41047 
   14530   0.95884166   -9395.3241    24.061336    297.63739 
   14540   0.95884166   -9393.9244   -36.135355    298.34829 
   14550   0.95884166   -9392.3464   -21.820167    297.48337 
   14560   0.95884166    -9390.668   -90.929112    300.36448 
   14570   0.95884166   -9388.8404   -105.29232    300.09957 
   14580   0.95884166   -9387.3685   -113.67563    302.48318 
   14590   0.95884166   -9386.1607   -24.846539    298.80847 
   14600   0.95884166   -9384.7874     137.2822     291.6885 
   14610   0.95884166   -9383.0644    163.48087    296.86901 
   14620   0.95884166    -9380.562    295.31463    295.40035 
   14630   0.95884166   -9377.5127    221.68512    298.28608 
   14640   0.95884166   -9373.9584    53.106285    302.03309 
   14650   0.95884166   -9370.4983   -72.992568    303.99696 
   14660   0.95884166   -9367.0782    19.712269    298.14703 
   14670   0.95884166   -9363.6935   -63.915461    304.40122 
   14680   0.95884166   -9360.1577   -34.440916    302.44783 
   14690   0.95884166   -9356.9935    70.892689    298.49228 
   14700   0.95884166   -9353.4559    292.82239    292.38554 
   14710   0.95884166   -9348.8835    342.83618    295.05097 
   14720   0.95884166   -9343.6167    195.20712    306.78588 
   14730   0.95884166   -9338.3138    295.93994    302.50144 
   14740   0.95884166   -9333.2719    503.96007    297.39556 
   14750   0.95884166   -9327.7518    660.40255    299.49445 
   14760   0.95884166   -9322.0791    730.69231    305.25598 
   14770   0.95884166   -9316.5976    896.89322    303.85632 
   14780   0.95884166   -9311.5815    1080.5135    299.26434 
   14790   0.95884166   -9306.5641    1190.8546    298.42074 
   14800   0.95884166   -9301.4972    1033.0078    303.39624 
   14810   0.95884166   -9296.8222    668.74282    312.57258 
   14820   0.95884166   -9293.3898    571.71245    311.69189 
   14830   0.95884166   -9291.6297    579.37946    307.36229 
   14840   0.95884166   -9291.1757    550.59497    307.86613 
   14850   0.95884166   -9291.6065    651.41934     305.0826 
   14860   0.95884166   -9293.2126    713.43619     305.9603 
   14870   0.95884166   -9295.6711    859.19283    301.98863 
   14880   0.95884166   -9299.1353    953.29648    300.89723 
   14890   0.95884166   -9303.1478    1063.7549    300.17943 
   14900   0.95884166   -9308.1463    1081.6466    301.63876 
   14910   0.95884166   -9313.7973    1046.6544    297.49495 
   14920   0.95884166   -9320.3862     639.5842    306.29213 
   14930   0.95884166   -9328.7292    409.61305    310.02568 
   14940   0.95884166   -9338.7959    448.15437    305.07494 
   14950   0.95884166   -9350.2715    317.48368    303.96231 
   14960   0.95884166   -9362.2214    53.165315    305.67675 
   14970   0.95884166   -9373.9333   -34.793215    299.27207 
   14980   0.95884166   -9384.2325   -93.074629    297.73771 
   14990   0.95884166   -9393.1901   -183.34248    300.24996 
   15000   0.95884166   -9400.5874   -235.28229    300.48149 
   15010   0.95884166   -9407.0027   -261.87464    301.45479 
   15020   0.95884166   -9412.3468   -139.91275    294.38248 
   15030   0.95884166   -9416.2612   -30.919944    290.29542 
   15040   0.95884166   -9419.0063   -64.212448    299.70482 
   15050   0.95884166    -9421.446   -59.480995     303.0969 
   15060   0.95884166   -9424.1392   -42.763392     300.0764 
   15070   0.95884166   -9426.7516    44.187557    295.69969 
   15080   0.95884166    -9428.958    125.22949    296.56172 
   15090   0.95884166        -9431    158.73473    297.22894 
   15100   0.95884166   -9432.7804    99.324649    294.05847 
   15110   0.95884166   -9434.1424   -210.16883     299.9883 
   15120   0.95884166   -9435.4024    -448.3733    302.26783 
   15130   0.95884166   -9437.5635   -651.00423    305.92013 
   15140   0.95884166   -9440.3515   -573.36776    301.32185 
   15150   0.95884166   -9443.8707   -251.24614    296.69599 
   15160   0.95884166   -9446.9252    107.61336    290.73909 
   15170   0.95884166   -9449.2823    115.92526    290.18524 
   15180   0.95884166   -9451.0844   -179.35171     299.2932 
   15190   0.95884166   -9452.9214    -269.2715    303.02059 
   15200   0.95884166   -9455.2033   -9.0194157    295.24086 
   15210   0.95884166   -9457.2229    245.79116    289.64618 
   15220   0.95884166   -9458.5642    301.87339    292.07848 
   15230   0.95884166   -9458.9386    385.59089    289.43016 
   15240   0.95884166   -9458.6488    294.49519     292.4753 
   15250   0.95884166   -9457.4242    216.91287    293.52816 
   15260   0.95884166   -9455.8129    126.10675    296.53057 
   15270   0.95884166    -9453.729    59.733351    297.79256 
   15280   0.95884166   -9451.3106    115.03742    295.95504 
   15290   0.95884166   -9448.6065    120.05108    295.30456 
   15300   0.95884166   -9444.7826    58.728558    291.17287 
   15310   0.95884166   -9440.0766   -190.37569    298.66788 
   15320   0.95884166   -9434.4885   -261.95355    299.63135 
   15330   0.95884166   -9428.5721   -166.49225    297.41062 
   15340   0.95884166   -9422.2062   -154.38294    299.72933 
   15350   0.95884166   -9415.0841   -35.985538     292.6248 
   15360   0.95884166   -9407.3486   -63.303315    296.15759 
   15370   0.95884166   -9398.6505    71.038906    295.91316 
   15380   0.95884166    -9389.596    292.90879    295.12175 
   15390   0.95884166   -9380.0607     488.6607    296.37223 
   15400   0.95884166   -9370.7286    472.46152     298.9047 
   15410   0.95884166   -9361.9996    388.62265    299.03569 
   15420   0.95884166   -9354.2994    220.41178    302.15198 
   15430   0.95884166   -9347.7973    98.634035    305.14991 
   15440   0.95884166   -9342.9678    32.906989    310.37124 
   15450   0.95884166   -9340.0601    84.376298    313.91725 
   15460   0.95884166   -9339.0419    333.36235    303.62286 
   15470   0.95884166   -9339.1164    339.14605    303.64931 
   15480   0.95884166   -9339.7988    349.54822    303.88263 
   15490   0.95884166   -9341.2116    404.79486    302.70132 
   15500   0.95884166    -9342.831    479.96612    298.80682 
   15510   0.95884166   -9344.4988    349.70345    300.90322 
   15520   0.95884166   -9346.5229    183.33245    304.56134 
   15530   0.95884166   -9349.0872    145.54229     306.4169 
   15540   0.95884166   -9352.5769     136.3291    307.27756 
   15550   0.95884166   -9356.6316     247.2542    300.66439 
   15560   0.95884166   -9360.8892    385.80147    295.42529 
   15570   0.95884166   -9364.4307    420.81239    295.55009 
   15580   0.95884166   -9367.9451    345.18087    304.15648 
   15590   0.95884166   -9371.5303    546.04959    299.34028 
   15600   0.95884166   -9375.4557    570.73969    299.93362 
   15610   0.95884166   -9379.2917    468.23982    299.81545 
   15620   0.95884166   -9383.1359    305.84674    302.06847 
   15630   0.95884166   -9387.3601    218.35778    304.25191 
   15640   0.95884166   -9391.7881    351.13618    298.13106 
   15650   0.95884166   -9396.1578    393.09717    298.28808 
   15660   0.95884166   -9400.2301    321.39925    299.08377 
   15670   0.95884166   -9404.0063    293.08592     297.9199 
   15680   0.95884166   -9407.8422     150.5126    304.35964 
   15690   0.95884166   -9411.8171    117.91877    301.76202 
   15700   0.95884166   -9416.2621    28.956993    303.34455 
   15710   0.95884166   -9420.5745    60.911024    299.46876 
   15720   0.95884166   -9424.7064    64.278182    299.50955 
   15730   0.95884166   -9428.6306    166.76116    300.50288 
   15740   0.95884166   -9432.1625     397.3103    293.46904 
   15750   0.95884166   -9434.8406    359.67187    294.11065 
   15760   0.95884166   -9436.8701     158.1271    299.48952 
   15770   0.95884166   -9438.7887    66.285871    299.00664 
   15780   0.95884166   -9440.2513   -47.784248     297.2328 
   15790   0.95884166   -9441.8753   -184.93057    301.28892 
   15800   0.95884166   -9443.2784   -100.58237    296.55839 
   15810   0.95884166   -9444.4534   -27.024103     292.4038 
   15820   0.95884166   -9444.9663   -14.869258    293.35793 
   15830   0.95884166   -9444.8089    26.302091    294.33123 
   15840   0.95884166   -9444.4352     5.302575    299.48631 
   15850   0.95884166   -9444.0058    103.42319    293.69239 
   15860   0.95884166   -9443.1526    92.133503    290.11627 
   15870   0.95884166   -9441.7543   -131.48446    297.52764 
   15880   0.95884166   -9440.1132   -309.57708    299.97371 
   15890   0.95884166   -9439.0025   -412.26294     303.8019 
   15900   0.95884166   -9438.4761   -310.96037    301.93724 
   15910   0.95884166   -9438.4752   -154.80468     297.4376 
   15920   0.95884166   -9438.4811   -10.451161    296.30211 
   15930   0.95884166   -9438.4804    13.664884    300.17902 
   15940   0.95884166    -9438.584    73.392317    297.77626 
   15950   0.95884166   -9438.5901    84.934698    296.82276 
   15960   0.95884166    -9438.271      205.816    293.16289 
   15970   0.95884166   -9437.5379    370.56629     290.3934 
   15980   0.95884166   -9436.1451    369.29603     293.0028 
   15990   0.95884166    -9433.959     237.3985    297.06451 
   16000   0.95884166   -9431.5028    191.61721    298.59109 
   16010   0.95884166    -9429.023    163.57817    298.04363 
   16020   0.95884166    -9426.566     9.889264    298.43739 
   16030   0.95884166   -9424.1447   -204.07108    299.25266 
   16040   0.95884166   -9421.5064   -268.98416    299.22079 
   16050   0.95884166   -9418.8076   -123.56371     296.2018 
   16060   0.95884166   -9415.4521    44.001178      292.321 
   16070   0.95884166   -9411.2906   -1.2314624    298.17118 
   16080   0.95884166   -9406.1926   -61.118718    297.86031 
   16090   0.95884166   -9400.3541   -279.78995     303.2294 
   16100   0.95884166   -9393.7639   -293.71975    302.60708 
   16110   0.95884166   -9386.6189   -205.97424    300.20313 
   16120   0.95884166   -9378.7354   -98.992986    302.34297 
   16130   0.95884166   -9369.6681    102.06222    300.62166 
   16140   0.95884166   -9359.6625    220.52859    295.94223 
   16150   0.95884166   -9348.7029    143.26217    297.44733 
   16160   0.95884166   -9336.8329    109.45873    301.24939 
   16170   0.95884166   -9325.3546     74.68473     308.9321 
   16180   0.95884166   -9315.3358    97.559453    307.39276 
   16190   0.95884166   -9307.3993    119.51921    305.01782 
   16200   0.95884166    -9300.938    207.96408    302.36313 
   16210   0.95884166   -9295.8827    128.03716    304.19917 
   16220   0.95884166    -9292.238   -31.008999    309.06995 
   16230   0.95884166     -9290.23   -39.500659     308.4414 
   16240   0.95884166   -9289.6376    -12.36833    307.17025 
   16250   0.95884166   -9290.0703    36.765106    306.21158 
   16260   0.95884166   -9291.6988    -35.86835    308.08471 
   16270   0.95884166   -9293.9595   -97.202103    304.60258 
   16280   0.95884166   -9297.2242   -219.50012    307.00474 
   16290   0.95884166    -9300.834   -135.34173    305.23025 
   16300   0.95884166    -9305.169    -18.21687    307.20696 
   16310   0.95884166   -9310.3643    142.00187    306.27839 
   16320   0.95884166   -9315.7634    282.32346    300.17954 
   16330   0.95884166   -9321.2215    138.00588    304.16507 
   16340   0.95884166    -9326.858     21.11596    308.37035 
   16350   0.95884166   -9332.9671     189.0544    304.35242 
   16360   0.95884166   -9339.1937    270.26291    302.30462 
   16370   0.95884166   -9345.1454    281.13315    298.01951 
   16380   0.95884166   -9350.4004    119.55603    300.49176 
   16390   0.95884166    -9355.243   -1.0956934    302.17628 
   16400   0.95884166   -9359.9621   -3.6139649    301.91406 
   16410   0.95884166    -9364.589    53.072573     301.4126 
   16420   0.95884166   -9369.0616    74.829242    301.03016 
   16430   0.95884166   -9373.1099    72.587656    298.41659 
   16440   0.95884166   -9376.8164   -26.702567    299.71614 
   16450   0.95884166   -9380.3332   -169.17833    300.35391 
   16460   0.95884166   -9383.9099   -330.73895    305.19373 
   16470   0.95884166   -9388.1125   -279.59072    305.90564 
   16480   0.95884166   -9392.4419   -45.386571    296.43471 
   16490   0.95884166   -9396.6357   -35.453013    298.68607 
   16500   0.95884166   -9400.1506    162.42077    293.40733 
   16510   0.95884166   -9402.9919    227.94149    291.99017 
   16520   0.95884166   -9405.1909    96.827201    298.60879 
   16530   0.95884166   -9407.2125    61.645119     299.4106 
   16540   0.95884166   -9409.4227    33.766753    300.23622 
   16550   0.95884166   -9411.6063    199.79163    293.20402 
   16560   0.95884166   -9413.2439    207.12578    294.90114 
   16570   0.95884166   -9414.5656    137.33487    298.53901 
   16580   0.95884166   -9415.6103    128.04893    291.21461 
   16590   0.95884166   -9416.2912   -35.102288    297.41828 
   16600   0.95884166   -9416.6202    60.924945    299.57254 
   16610   0.95884166   -9417.4229    168.34987    301.99032 
   16620   0.95884166   -9418.2868    361.01362    291.92702 
   16630   0.95884166   -9418.8592    227.56367    293.50842 
   16640   0.95884166   -9418.9698    60.931886    300.27083 
   16650   0.95884166   -9418.9313    148.90825    294.73188 
   16660   0.95884166   -9418.7656    70.255052    298.28642 
   16670   0.95884166   -9418.4671    101.76213     298.2954 
   16680   0.95884166   -9418.2197    66.999765    299.45754 
   16690   0.95884166   -9418.0647   -5.5435788    295.99484 
   16700   0.95884166   -9417.7002   -41.221582    294.71446 
   16710   0.95884166    -9416.952   -58.152378    297.16865 
   16720   0.95884166   -9415.6568    40.763821    291.68924 
   16730   0.95884166   -9413.6566   -42.894682    296.31069 
   16740   0.95884166   -9410.5893    -100.4704    298.37537 
   16750   0.95884166   -9407.0908   -268.40285    304.19098 
   16760   0.95884166   -9403.4127    -274.9625    302.13183 
   16770   0.95884166   -9399.5037   -182.90787    297.05435 
   16780   0.95884166   -9395.2159   -151.90046     299.4618 
   16790   0.95884166   -9390.3175   -129.85896    302.81929 
   16800   0.95884166   -9385.4886   -129.03962    305.13301 
   16810   0.95884166   -9380.8904   -34.002837    303.34815 
   16820   0.95884166   -9376.7994    104.27498    303.38223 
   16830   0.95884166   -9373.0226    266.82142    303.53714 
   16840   0.95884166    -9369.575    317.43294    303.05062 
   16850   0.95884166   -9366.6879    318.91402    305.65335 
   16860   0.95884166   -9364.4512    382.48073    303.56297 
   16870   0.95884166   -9362.8527    297.99194    303.96896 
   16880   0.95884166   -9361.9489     232.6381    304.45119 
   16890   0.95884166   -9361.8221     221.0494    303.03066 
   16900   0.95884166   -9362.1635    161.09607    299.74745 
   16910   0.95884166   -9362.7246   -51.497308    299.85319 
   16920   0.95884166   -9363.9136   -299.92924    307.50695 
   16930   0.95884166   -9366.0507   -278.69463    305.70025 
   16940   0.95884166   -9369.3306   -193.87548    305.71497 
   16950   0.95884166   -9373.9008    95.401723    298.99429 
   16960   0.95884166   -9378.6398    240.21786    294.87793 
   16970   0.95884166   -9383.6435   -39.812944    301.76996 
   16980   0.95884166   -9389.2499   -224.92854    302.02458 
   16990   0.95884166   -9395.9532   -269.52371    305.67627 
   17000   0.95884166   -9403.3115   -115.34967    297.58729 
   17010   0.95884166   -9410.7359   -22.521675    294.70562 
   17020   0.95884166   -9417.6553    64.456597    289.99176 
   17030   0.95884166   -9423.7441    11.826681    292.64879 
   17040   0.95884166   -9428.9868    59.601137     291.1585 
   17050   0.95884166    -9433.569    17.155779    294.03577 
   17060   0.95884166   -9437.1275   -48.377493    290.45164 
   17070   0.95884166    -9440.181    -342.9799    299.22397 
   17080   0.95884166   -9443.1478   -372.52373    300.47275 
   17090   0.95884166   -9446.2231   -207.86633    292.16943 
   17100   0.95884166   -9448.6707   -95.238637    288.97879 
   17110   0.95884166    -9450.011    29.667153    285.84191 
   17120   0.95884166   -9450.2817   -31.188394    291.68043 
   17130   0.95884166   -9449.4619   -123.12676      292.095 
   17140   0.95884166   -9447.9472   -310.53214    292.80364 
   17150   0.95884166   -9445.9011   -460.07384    294.14561 
   17160   0.95884166   -9443.1051   -443.39074    293.52279 
   17170   0.95884166   -9439.6663   -296.32161    293.18606 
   17180   0.95884166   -9435.2081   -125.63432    291.31566 
   17190   0.95884166   -9429.6409   -264.24947    296.56988 
   17200   0.95884166   -9423.0391   -365.96163    299.49567 
   17210   0.95884166   -9415.9159   -99.392312    292.83572 
   17220   0.95884166   -9407.6821    141.23486    291.45896 
   17230   0.95884166   -9398.0321    126.36086     299.4627 
   17240   0.95884166   -9387.5946    281.47333    296.73341 
   17250   0.95884166   -9377.0178    462.23838    298.49748 
   17260   0.95884166   -9366.7083    651.78875    299.19422 
   17270   0.95884166   -9357.2245    823.33208    297.22563 
   17280   0.95884166   -9348.7278    917.23193    300.31188 
   17290   0.95884166   -9341.4711    1015.9735    297.96802 
   17300   0.95884166   -9335.7116    873.03619     303.0283 
   17310   0.95884166   -9331.7227    640.02869    311.33559 
   17320   0.95884166   -9329.6879    584.22823    308.15197 
   17330   0.95884166   -9329.3829    528.89275    307.82851 
   17340   0.95884166   -9329.9579    673.20565    301.53932 
   17350   0.95884166   -9331.0164    757.74087    298.80158 
   17360   0.95884166   -9331.9696    725.14143    299.55923 
   17370   0.95884166   -9333.0601    530.80815    303.59578 
   17380   0.95884166   -9334.5363    336.21527    302.88322 
   17390   0.95884166   -9336.7627    160.93079    304.33164 
   17400   0.95884166   -9339.2261    33.123231    303.66458 
   17410   0.95884166   -9342.5469   -95.183681    307.92205 
   17420   0.95884166   -9346.7673   -23.014554    307.30338 
   17430   0.95884166   -9351.9061    221.62857    300.61647 
   17440   0.95884166   -9356.6861    467.77304    292.03833 
   17450   0.95884166   -9360.9579    393.58046    294.43028 
   17460   0.95884166   -9364.7145     153.3827    300.67003 
   17470   0.95884166   -9368.5947   -18.132471     303.7375 
   17480   0.95884166   -9373.2156   -27.347658    307.09494 
   17490   0.95884166   -9378.6946    196.44364    303.94014 
   17500   0.95884166   -9384.6957    401.85994    297.87761 
   17510   0.95884166   -9390.6389    345.01275    297.60774 
   17520   0.95884166   -9396.1135    226.21192    296.85934 
   17530   0.95884166   -9401.3322    157.44097    297.39959 
   17540   0.95884166   -9406.2943    44.873131    300.72976 
   17550   0.95884166   -9411.2769   -9.2617979       300.22 
   17560   0.95884166   -9416.3748   -122.77394    300.74761 
   17570   0.95884166   -9421.5512   -265.09844     299.8233 
   17580   0.95884166   -9426.5444   -267.49539    294.71905 
   17590   0.95884166   -9430.7964   -128.61222    289.69712 
   17600   0.95884166   -9433.8239   -86.168867     291.1121 
   17610   0.95884166    -9436.078   -151.23332    294.30005 
   17620   0.95884166   -9437.5156   -63.194101    289.17615 
   17630   0.95884166   -9438.2092    -138.0529    293.55602 
   17640   0.95884166   -9438.1398   -142.67224    292.06441 
   17650   0.95884166   -9437.2925    -186.3192    289.81429 
   17660   0.95884166   -9435.8228   -307.89733    294.30975 
   17670   0.95884166   -9433.6667   -280.71174    294.36828 
   17680   0.95884166   -9431.3171   -232.12659    295.29547 
   17690   0.95884166   -9428.4115   -327.20958    293.42705 
   17700   0.95884166    -9425.533   -756.41307    304.72882 
   17710   0.95884166   -9422.7265   -695.37078    299.21154 
   17720   0.95884166   -9420.3713   -528.68333    295.51979 
   17730   0.95884166   -9417.6347   -528.18542    295.53981 
   17740   0.95884166   -9414.6774   -674.16095    300.60317 
   17750   0.95884166    -9411.637   -671.89302    298.96536 
   17760   0.95884166   -9408.5624   -498.11804     296.3501 
   17770   0.95884166   -9405.3205   -428.31809    303.51194 
   17780   0.95884166   -9402.0117   -227.42058    301.00095 
   17790   0.95884166   -9398.7188   -131.17307    297.54075 
   17800   0.95884166    -9395.001   -271.37935    299.06539 
   17810   0.95884166   -9390.5841   -422.65252    305.37491 
   17820   0.95884166   -9385.8192   -339.01265    303.81744 
   17830   0.95884166   -9380.7033   -257.57287    302.74207 
   17840   0.95884166   -9374.6618   -206.66368      301.989 
   17850   0.95884166    -9367.395   -53.387003    298.88422 
   17860   0.95884166   -9358.6521  -0.22153788    301.25471 
   17870   0.95884166   -9348.5522   -28.429798    303.04828 
   17880   0.95884166   -9337.6749   -91.392247    306.34669 
   17890   0.95884166   -9326.9103    56.432392    302.11791 
   17900   0.95884166   -9316.7026    197.10559    302.38958 
   17910   0.95884166   -9307.1056    270.27472    304.04503 
   17920   0.95884166   -9298.5685    230.35619    308.02558 
   17930   0.95884166   -9291.5091    345.68867     304.1225 
   17940   0.95884166   -9285.8538    429.99914    303.83721 
   17950   0.95884166   -9281.4779    469.19868    307.36103 
   17960   0.95884166   -9278.1382    543.87608    304.80344 
   17970   0.95884166    -9275.944    453.20706    308.05786 
   17980   0.95884166   -9275.0889    388.46364    307.44284 
   17990   0.95884166    -9275.362     278.7684    307.21554 
   18000   0.95884166   -9276.5995    343.10653     303.9195 
   18010   0.95884166    -9278.456     517.0938    299.47273 
   18020   0.95884166   -9280.7663    503.95136    301.22042 
   18030   0.95884166   -9283.2681    439.84412    301.02223 
   18040   0.95884166   -9286.4993    323.08548    306.49911 
   18050   0.95884166   -9290.5269    317.19936      305.685 
   18060   0.95884166   -9295.7021    232.14559    302.69409 
   18070   0.95884166   -9301.4234    174.17003    302.26838 
   18080   0.95884166   -9307.9078    87.145656    305.54682 
   18090   0.95884166   -9315.3667    68.111223    306.16292 
   18100   0.95884166   -9323.5887     155.1703    301.41233 
   18110   0.95884166   -9331.7341    239.99031    296.85334 
   18120   0.95884166   -9339.5226    152.90373     298.7553 
   18130   0.95884166   -9346.4719    142.82218    295.06559 
   18140   0.95884166   -9352.6474    45.855565    296.05139 
   18150   0.95884166   -9358.0109   -86.375743    302.24183 
   18160   0.95884166   -9363.0828   -59.003331    302.19275 
   18170   0.95884166   -9367.5961    182.15589    292.32126 
   18180   0.95884166   -9371.1757    298.23523     290.9586 
   18190   0.95884166   -9373.5075    362.23873    290.65702 
   18200   0.95884166   -9374.5725    280.92216    294.41147 
   18210   0.95884166   -9375.2979    183.25573    300.38589 
   18220   0.95884166   -9376.1321    179.28793    303.33106 
   18230   0.95884166   -9377.4905    238.55758    305.22772 
   18240   0.95884166   -9379.0652    546.98841    294.80826 
   18250   0.95884166   -9380.6223    708.02427    295.62506 
   18260   0.95884166   -9381.5956      732.945    295.94207 
   18270   0.95884166   -9382.4681    454.43917    302.97169 
   18280   0.95884166   -9383.7516    140.49999    307.32626 
   18290   0.95884166   -9385.8949    118.84221    301.48585 
   18300   0.95884166   -9388.3367    169.80935    299.61861 
   18310   0.95884166   -9391.0886    82.368815    302.36928 
   18320   0.95884166    -9393.865    95.823606    294.94868 
   18330   0.95884166   -9396.3935    64.914982    294.66034 
   18340   0.95884166   -9398.5104    71.849652    295.22698 
   18350   0.95884166   -9399.7868    51.652942    292.96831 
   18360   0.95884166   -9401.1285   -143.34293    303.16404 
   18370   0.95884166   -9402.5576    -65.40876    300.77549 
   18380   0.95884166   -9404.5305    44.749646    297.01157 
   18390   0.95884166   -9406.3305    128.69571    296.00076 
   18400   0.95884166   -9407.9627    152.27315    294.33483 
   18410   0.95884166   -9409.3003    34.924797    296.94575 
   18420   0.95884166   -9410.2861    118.27382    295.02466 
   18430   0.95884166   -9411.0873    217.76777    294.53768 
   18440   0.95884166   -9411.6568    123.36527    298.67932 
   18450   0.95884166   -9412.1011   -18.170296    297.02659 
   18460   0.95884166   -9412.6024   -106.55632    296.99738 
   18470   0.95884166   -9413.0092    28.705245    293.84916 
   18480   0.95884166   -9413.0044    95.909151     291.5053 
   18490   0.95884166   -9412.2167    14.323048    294.84352 
   18500   0.95884166   -9410.8659    54.915307     293.2737 
   18510   0.95884166   -9408.3087    123.70188     288.4653 
   18520   0.95884166    -9404.107    85.897377    291.82266 
   18530   0.95884166   -9398.0659    35.936999    299.96196 
   18540   0.95884166   -9390.3958    159.53395    298.91662 
   18550   0.95884166   -9381.7562    377.44122    294.30648 
   18560   0.95884166   -9371.8671    393.74467    298.41994 
   18570   0.95884166   -9361.1686    373.23566    300.78019 
   18580   0.95884166   -9350.7476    398.67831    299.83437 
   18590   0.95884166   -9340.7666    305.31919    302.52911 
   18600   0.95884166   -9331.8781    276.68219    301.90958 
   18610   0.95884166   -9323.9589     306.5086    298.90288 
   18620   0.95884166   -9316.9635    254.66072    302.44658 
   18630   0.95884166   -9310.9237    183.30316    305.84999 
   18640   0.95884166   -9306.3021    73.892867    307.26094 
   18650   0.95884166   -9302.9131    36.125324    304.79617 
   18660   0.95884166    -9300.852    82.174851    305.17826 
   18670   0.95884166   -9299.6825    167.33317    308.55996 
   18680   0.95884166   -9300.0819    223.62435    311.71751 
   18690   0.95884166   -9301.7866    386.15243     309.5335 
   18700   0.95884166   -9305.0458    541.57147     306.7788 
   18710   0.95884166   -9309.3619    581.97618    307.60375 
   18720   0.95884166   -9314.7416    624.84038    305.84738 
   18730   0.95884166   -9321.0209    504.81719    305.66763 
   18740   0.95884166   -9328.0931    306.79072    306.54028 
   18750   0.95884166   -9336.1278    131.50063    311.38631 
   18760   0.95884166   -9345.0836    291.17059    305.82235 
   18770   0.95884166   -9354.4989    346.14202    303.79394 
   18780   0.95884166   -9363.1129    389.80546     296.3997 
   18790   0.95884166   -9370.9633    237.40738    299.72752 
   18800   0.95884166   -9377.7856      164.317    298.21612 
   18810   0.95884166    -9383.569    46.666513    297.60186 
   18820   0.95884166   -9388.5039   -137.88246    299.63496 
   18830   0.95884166   -9392.8025   -312.63992    298.07606 
   18840   0.95884166   -9396.7279   -484.20921    299.98581 
   18850   0.95884166   -9400.4705   -531.99447    301.41236 
   18860   0.95884166   -9403.8698   -403.66521    294.12535 
   18870   0.95884166   -9406.5565   -398.00822    292.48718 
   18880   0.95884166   -9408.4391   -505.58454    296.39472 
   18890   0.95884166   -9410.1625   -601.51537    298.05093 
   18900   0.95884166    -9411.521    -515.9956    294.77053 
   18910   0.95884166   -9412.7563   -442.21416    299.23984 
   18920   0.95884166   -9413.8905   -334.92468    295.86174 
   18930   0.95884166   -9414.7546   -388.29662    293.39277 
   18940   0.95884166   -9414.9578   -533.92001    293.20766 
   18950   0.95884166   -9414.8074   -763.33863    296.17332 
   18960   0.95884166   -9414.2659   -891.54693    297.41949 
   18970   0.95884166   -9413.7712   -1035.3819    299.92342 
   18980   0.95884166   -9413.5548   -1050.5224    299.37076 
   18990   0.95884166   -9413.3134    -1044.466    299.97662 
   19000   0.95884166   -9413.2762   -963.64752    298.86373 
   19010   0.95884166   -9413.5629   -820.05803    299.31532 
   19020   0.95884166   -9414.0035   -581.31552    298.91374 
   19030   0.95884166   -9414.6453   -403.72503    298.53604 
   19040   0.95884166   -9415.0761     -182.375     291.8514 
   19050   0.95884166   -9415.1657   -71.300834    289.43798 
   19060   0.95884166   -9413.9592   -96.086035    292.36101 
   19070   0.95884166   -9411.8339   -196.18533    294.90912 
   19080   0.95884166   -9409.1072   -453.61371    301.07796 
   19090   0.95884166   -9406.4179   -674.94669    308.49641 
   19100   0.95884166   -9404.1358   -516.13319    303.86304 
   19110   0.95884166   -9402.3398   -264.44183    298.11644 
   19120   0.95884166   -9400.5464    -213.1223    299.08127 
   19130   0.95884166   -9398.4885   -241.27333    299.81771 
   19140   0.95884166    -9395.944   -118.36746     293.8616 
   19150   0.95884166   -9392.8262   -164.98786    298.22076 
   19160   0.95884166   -9389.0219   -216.48899    303.17739 
   19170   0.95884166   -9385.3257   -179.56621    302.83379 
   19180   0.95884166   -9381.8536   -161.79975     300.0309 
   19190   0.95884166   -9378.1786   -242.21905    297.92956 
   19200   0.95884166   -9374.1933   -325.32646    299.09342 
   19210   0.95884166   -9369.9609   -274.43891    299.84242 
   19220   0.95884166   -9365.6362   -348.86038    306.65119 
   19230   0.95884166   -9361.7506   -123.05692    299.93205 
   19240   0.95884166   -9357.9971    154.67045     292.5837 
   19250   0.95884166    -9353.562    159.20806    294.37774 
   19260   0.95884166   -9348.4822    31.065356    298.94516 
   19270   0.95884166   -9343.1298    10.237412    302.68511 
   19280   0.95884166   -9337.7801    159.89187    295.90688 
   19290   0.95884166   -9332.5258    46.068159    302.81345 
   19300   0.95884166   -9327.4378    19.401271    307.10463 
   19310   0.95884166   -9323.0348    93.975733    303.25893 
   19320   0.95884166   -9319.5984    101.14851    303.38398 
   19330   0.95884166   -9316.5086    258.62651    300.50107 
   19340   0.95884166   -9313.7075    378.27563    298.59478 
   19350   0.95884166   -9310.8073    291.11024    300.97667 
   19360   0.95884166    -9308.164    162.36528    302.81891 
   19370   0.95884166   -9305.9802     65.44949    303.56841 
   19380   0.95884166   -9304.3348    -190.5774    309.05518 
   19390   0.95884166   -9304.0827   -457.67544    312.65045 
   19400   0.95884166   -9305.4625   -470.42928    307.08366 
   19410   0.95884166   -9308.1845   -493.78199    306.25163 
   19420   0.95884166   -9312.2428   -538.48556    305.39969 
   19430   0.95884166   -9317.5694   -544.04623    303.61226 
   19440   0.95884166   -9324.2946    -570.0743    305.72248 
   19450   0.95884166   -9332.7903   -549.44157    307.50784 
   19460   0.95884166    -9342.622   -379.83658    300.52546 
   19470   0.95884166   -9353.1523   -386.61525    301.53819 
   19480   0.95884166   -9363.8726   -376.85452    299.96952 
   19490   0.95884166   -9374.2696   -319.26345    300.76478 
   19500   0.95884166   -9384.1987   -259.80826    303.71398 
   19510   0.95884166    -9393.341   -205.72203    300.75376 
   19520   0.95884166   -9401.2143    -242.6695    295.72722 
   19530   0.95884166   -9407.5328   -459.34853     299.5414 
   19540   0.95884166   -9412.8612   -550.11576    301.35057 
   19550   0.95884166   -9417.5749   -553.39881    302.93506 
   19560   0.95884166   -9422.0704   -500.56146     300.9692 
   19570   0.95884166   -9425.8368   -393.36671    290.22133 
   19580   0.95884166   -9428.6412   -472.10928    294.92404 
   19590   0.95884166   -9430.6221   -289.13026    291.05073 
   19600   0.95884166   -9431.3088   -82.088966    283.03355 
   19610   0.95884166   -9430.8018   -299.28094    291.51621 
   19620   0.95884166   -9429.2415   -478.53904    293.45672 
   19630   0.95884166    -9427.256   -626.79869    293.88844 
   19640   0.95884166   -9424.9497   -792.43403    294.61042 
   19650   0.95884166   -9422.1995   -915.39857    297.61533 
   19660   0.95884166   -9419.5017   -886.90818    296.53635 
   19670   0.95884166   -9416.3559   -740.40874    291.02691 
   19680   0.95884166   -9412.9665   -817.98777    297.89136 
   19690   0.95884166   -9409.1702   -825.58171    300.47031 
   19700   0.95884166   -9405.6758   -718.29565     300.9747 
   19710   0.95884166   -9402.3539   -398.22198    292.94021 
   19720   0.95884166   -9398.6599   -230.07443    291.41542 
   19730   0.95884166   -9394.1965   -250.88332    291.69458 
   19740   0.95884166   -9388.8054   -345.56758    295.50755 
   19750   0.95884166    -9383.174   -454.51416    303.44927 
   19760   0.95884166   -9377.6394   -232.74501     294.6868 
   19770   0.95884166   -9372.3312   -190.79778    299.01307 
   19780   0.95884166   -9366.7585   -61.591574    297.91691 
   19790   0.95884166   -9361.2729    148.00632    293.49122 
   19800   0.95884166   -9355.4297    170.52773    294.48359 
   19810   0.95884166   -9349.2628   -25.373696    297.64916 
   19820   0.95884166   -9343.1937   -264.43332    306.54027 
   19830   0.95884166   -9338.1111   -212.37345    304.85078 
   19840   0.95884166   -9334.0613   -64.421718    301.99195 
   19850   0.95884166   -9330.8989    85.194779     303.8161 
   19860   0.95884166   -9328.1645    241.40825    300.32893 
   19870   0.95884166   -9326.2316    208.53381    302.07139 
   19880   0.95884166   -9324.7115    149.98582    302.78527 
   19890   0.95884166   -9323.8561    157.67801    301.03983 
   19900   0.95884166   -9323.3402    178.48148    299.80311 
   19910   0.95884166   -9323.0379    80.443924    303.32624 
   19920   0.95884166   -9323.5343   -74.826325    306.15456 
   19930   0.95884166   -9324.8005   -65.720658    303.34537 
   19940   0.95884166   -9326.8929    72.681078    299.86102 
   19950   0.95884166   -9328.9467    210.58371    293.08452 
   19960   0.95884166   -9330.9413   -37.318902    300.59241 
   19970   0.95884166   -9333.0442    -330.8216     304.6507 
   19980   0.95884166   -9336.2031   -565.99918    308.96877 
   19990   0.95884166   -9340.9967   -622.36181    309.06112 
   20000   0.95884166   -9347.4252   -513.58148    302.87739 
   20010   0.95884166   -9355.3604   -512.97646    304.13852 
   20020   0.95884166   -9365.1189   -507.92082    305.52869 
   20030   0.95884166   -9376.3829   -289.50228    296.48669 
   20040   0.95884166   -9388.1972   -249.18958    292.91132 
   20050   0.95884166   -9400.0053   -495.05115     298.9423 
   20060   0.95884166   -9411.3947   -645.16577    298.55994 
   20070   0.95884166     -9421.67   -642.41755    294.96699 
   20080   0.95884166   -9430.0985   -659.50836    296.91002 
   20090   0.95884166   -9436.5271   -688.29997    295.35061 
   20100   0.95884166   -9441.1033   -830.28747    297.19339 
   20110   0.95884166   -9444.3809   -899.01409    298.33796 
   20120   0.95884166   -9446.6054   -824.45284    295.42814 
   20130   0.95884166   -9448.1769   -782.15636    296.72555 
   20140   0.95884166   -9449.2891   -611.60853    296.64389 
   20150   0.95884166   -9449.9619    -427.2135    291.51547 
   20160   0.95884166   -9449.8514   -569.63227    291.90823 
   20170   0.95884166   -9449.1377   -740.95654    294.43616 
   20180   0.95884166   -9448.1311   -747.42148    295.79369 
   20190   0.95884166    -9446.933    -605.4979    296.31955 
   20200   0.95884166   -9445.2885    -343.3382    291.94731 
   20210   0.95884166   -9443.1206   -141.09523    290.21763 
   20220   0.95884166   -9440.1529   -39.794135    290.00643 
   20230   0.95884166   -9436.0134   -8.7554043    288.87415 
   20240   0.95884166   -9431.0382   -86.881161    296.51618 
   20250   0.95884166   -9425.7846   -73.508847    299.44415 
   20260   0.95884166   -9420.5935    13.691852    294.39459 
   20270   0.95884166   -9415.1838   -152.39757    295.06582 
   20280   0.95884166   -9409.5287   -574.62097    303.72982 
   20290   0.95884166     -9404.26   -741.18428    304.73163 
   20300   0.95884166   -9399.9583   -741.58776    310.43688 
   20310   0.95884166   -9397.2374   -569.78612    309.52128 
   20320   0.95884166   -9395.4236   -282.51483    296.16118 
   20330   0.95884166    -9394.056   -316.11012    296.83002 
   20340   0.95884166   -9392.4236   -402.74561    301.11965 
   20350   0.95884166   -9391.0932   -471.13111    303.76115 
   20360   0.95884166    -9390.321   -462.55378    301.23549 
   20370   0.95884166   -9389.9074   -443.29427    299.19626 
   20380   0.95884166   -9389.7339   -430.00346    298.75561 
   20390   0.95884166   -9389.5932   -425.70254    302.08662 
   20400   0.95884166    -9389.954   -329.32702    304.37255 
   20410   0.95884166   -9391.0219   -108.23002    298.95887 
   20420   0.95884166   -9392.4106    26.346721    295.91574 
   20430   0.95884166   -9393.7907    41.077187    298.13541 
   20440   0.95884166   -9395.0143    179.78028    295.32198 
   20450   0.95884166   -9396.3541    147.75703    298.51593 
   20460   0.95884166   -9397.6211    73.590988    299.29114 
   20470   0.95884166   -9399.4897   -7.1458881    300.41418 
   20480   0.95884166   -9401.5862   -31.927794    295.76358 
   20490   0.95884166   -9403.7488   -111.27265    295.92687 
   20500   0.95884166   -9406.3857   -314.70466    306.58685 
   20510   0.95884166   -9409.9175   -142.63179    296.19232 
   20520   0.95884166   -9413.7734   -82.510589    290.51641 
   20530   0.95884166   -9417.5253   -256.47955    297.91655 
   20540   0.95884166   -9421.4356   -252.46808    296.44006 
   20550   0.95884166   -9425.7767    -236.8924     295.4594 
   20560   0.95884166   -9430.1325   -226.75351    292.18987 
   20570   0.95884166    -9434.403   -234.06898    292.18488 
   20580   0.95884166   -9438.3084   -214.39286    290.94431 
   20590   0.95884166   -9441.7434   -253.32933      290.165 
   20600   0.95884166   -9444.7009   -240.57162      293.411 
   20610   0.95884166   -9447.3865   -140.22113    295.52468 
   20620   0.95884166   -9449.7614   -4.4950724    289.35527 
   20630   0.95884166   -9451.5452   -107.60905    291.66524 
   20640   0.95884166   -9452.8038   -205.32473    296.77183 
   20650   0.95884166    -9453.886   -95.214149    292.82653 
   20660   0.95884166   -9454.3911    6.9888269    290.10858 
   20670   0.95884166   -9454.3779   -38.232955    297.17149 
   20680   0.95884166   -9453.6448    160.96899    287.66345 
   20690   0.95884166    -9452.038     78.88983    289.35399 
   20700   0.95884166   -9448.8585   -56.050895    291.23769 
   20710   0.95884166   -9444.6176   -235.67232    298.55842 
   20720   0.95884166   -9439.8079   -297.45453    301.46212 
   20730   0.95884166   -9435.0696   -332.89015    302.24436 
   20740   0.95884166   -9430.1908   -199.20087    299.13296 
   20750   0.95884166   -9425.1483   -21.126158    296.79502 
   20760   0.95884166   -9419.6758    117.36487    298.14187 
   20770   0.95884166    -9413.708    349.10387    293.93242 
   20780   0.95884166   -9407.1518    407.04754    294.05325 
   20790   0.95884166   -9399.8535    289.03425    299.37223 
   20800   0.95884166    -9392.292    202.04677    303.48823 
   20810   0.95884166   -9385.0889    356.28773    296.15978 
   20820   0.95884166   -9378.1603    213.12092    300.33159 
   20830   0.95884166   -9371.5189    73.173673    304.14569 
   20840   0.95884166   -9365.5337    222.83224     300.6205 
   20850   0.95884166   -9360.3352     349.1515    302.09368 
   20860   0.95884166   -9355.6949    327.29109    305.07276 
   20870   0.95884166   -9352.0564    244.09226    307.58411 
   20880   0.95884166   -9349.8102    187.16934    307.69452 
   20890   0.95884166   -9348.5578    112.09017    306.57007 
   20900   0.95884166   -9348.4902    154.42464    303.85497 
   20910   0.95884166   -9349.1294     289.5737    300.92858 
   20920   0.95884166   -9350.2781    296.38617    303.60957 
   20930   0.95884166   -9351.8119    250.72678    303.59065 
   20940   0.95884166   -9354.2743    299.67832    301.70864 
   20950   0.95884166    -9357.136    378.90522    299.44186 
   20960   0.95884166   -9360.4724    299.90646    302.16571 
   20970   0.95884166   -9364.2235    171.90577    303.94637 
   20980   0.95884166   -9368.9977    69.591723    303.72952 
   20990   0.95884166   -9374.5027    26.766459    299.01091 
   21000   0.95884166   -9380.5643   -132.37545    298.86201 
   21010   0.95884166   -9387.1724   -222.12448    298.93593 
   21020   0.95884166   -9394.3665   -251.00922    298.90601 
   21030   0.95884166   -9402.0912    -259.5398     297.5294 
   21040   0.95884166   -9409.8479   -203.00117    290.92151 
   21050   0.95884166   -9417.2064   -266.99574    293.37887 
   21060   0.95884166   -9423.9317   -209.06405    290.14662 
   21070   0.95884166   -9429.5776   -192.36937    286.62616 
   21080   0.95884166   -9434.5207   -253.01308    293.01069 
   21090   0.95884166   -9438.3726   -46.690457    288.21578 
   21100   0.95884166   -9441.7702   -101.65393    295.07903 
   21110   0.95884166   -9444.4069   -177.60814    294.58207 
   21120   0.95884166   -9447.0169   -196.12457    296.81878 
   21130   0.95884166   -9449.3223   -15.675283    290.50837 
   21140   0.95884166   -9451.2055   -66.159448    294.78824 
   21150   0.95884166   -9452.6235    7.3929302     294.4048 
   21160   0.95884166   -9453.7671    192.37878    292.73617 
   21170   0.95884166    -9454.518    320.73013    296.44148 
   21180   0.95884166   -9455.3763    475.39679    292.20595 
   21190   0.95884166   -9455.8509    520.85326    288.61142 
   21200   0.95884166   -9455.1436    490.36087    286.17331 
   21210   0.95884166   -9452.6132    387.26183    290.22706 
   21220   0.95884166   -9447.9917    379.74554    295.10487 
   21230   0.95884166   -9441.6912    332.98445    300.69336 
   21240   0.95884166   -9434.1767    237.66694    299.06926 
   21250   0.95884166   -9426.1334    11.362474     300.9283 
   21260   0.95884166   -9417.7299    4.9046795    299.39314 
   21270   0.95884166   -9409.2431     203.3893    298.27125 
   21280   0.95884166   -9400.7832    439.03808    298.46727 
   21290   0.95884166   -9392.4913    627.43523    298.88363 
   21300   0.95884166   -9384.6234    788.93803    295.59774 
   21310   0.95884166   -9377.0071    697.36114    298.37484 
   21320   0.95884166   -9369.4179    601.44048    298.22731 
   21330   0.95884166   -9362.5563    551.76663    300.84644 
   21340   0.95884166   -9356.1641    614.48136    302.08252 
   21350   0.95884166   -9350.4963    589.68099     301.0499 
   21360   0.95884166   -9345.5669    457.46452    303.62164 
   21370   0.95884166   -9341.6974    320.93687    309.18462 
   21380   0.95884166   -9338.8833    406.04334    303.60373 
   21390   0.95884166   -9337.0415    403.60838    302.63252 
   21400   0.95884166   -9335.7013    412.08783    305.84671 
   21410   0.95884166   -9335.2031    485.54818    303.42713 
   21420   0.95884166   -9335.5352     416.2039     303.5391 
   21430   0.95884166   -9336.2538    437.66309     299.8141 
   21440   0.95884166   -9337.4213    388.26651    301.12135 
   21450   0.95884166   -9339.0977    339.07721    302.23737 
   21460   0.95884166    -9341.307    335.68569    302.65158 
   21470   0.95884166   -9344.0917    425.38026     302.3519 
   21480   0.95884166   -9347.4544    542.41595    300.48057 
   21490   0.95884166   -9351.4101    544.88545    300.67004 
   21500   0.95884166   -9355.6889    486.57097    297.50928 
   21510   0.95884166   -9360.0767    349.38427     297.0191 
   21520   0.95884166   -9364.6103    188.29729    299.69532 
   21530   0.95884166   -9369.6584    199.52123    299.61181 
   21540   0.95884166   -9374.5927    428.81341    292.26484 
   21550   0.95884166   -9379.2574    439.12889    295.70636 
   21560   0.95884166   -9383.7015    270.88137    300.38307 
   21570   0.95884166   -9388.7188    56.890333    303.09309 
   21580   0.95884166   -9394.1441    117.39055    297.71865 
   21590   0.95884166   -9399.9723    172.05773    301.30261 
   21600   0.95884166   -9406.2436    239.09553    299.81905 
   21610   0.95884166   -9412.3336    356.98046    291.91962 
   21620   0.95884166   -9417.7285    473.18993    287.83172 
   21630   0.95884166   -9422.1272    412.02673    293.18532 
   21640   0.95884166    -9425.845    336.55208    296.11484 
   21650   0.95884166   -9429.4196    290.36015     296.1006 
   21660   0.95884166   -9432.6187    216.62563    294.08117 
   21670   0.95884166   -9435.2533    263.03322    288.38503 
   21680   0.95884166   -9436.8703      252.344    290.15577 
   21690   0.95884166    -9437.868    148.10035    297.04958 
   21700   0.95884166    -9438.343    218.55303    288.57805 
   21710   0.95884166   -9437.7418    180.84149    282.19347 
   21720   0.95884166   -9435.7122   -61.468596    290.90656 
   21730   0.95884166   -9432.2359   -61.843877    293.72144 
   21740   0.95884166    -9427.969    2.1445776    293.32451 
   21750   0.95884166   -9422.6581   -3.4251627    291.89176 
   21760   0.95884166   -9416.0894   -27.992981    291.97656 
   21770   0.95884166   -9407.8575   -30.842628    290.24501 
   21780   0.95884166   -9397.7906   -113.99631    293.46068 
   21790   0.95884166    -9386.382   -85.985104    297.60373 
   21800   0.95884166   -9374.4468    61.563205    302.04471 
   21810   0.95884166   -9363.0593    292.60655    300.72704 
   21820   0.95884166   -9353.0466    325.44811    301.03045 
   21830   0.95884166   -9344.8086    178.48749    306.78053 
   21840   0.95884166   -9338.5105     103.6241    309.00953 
   21850   0.95884166   -9334.6163    182.16156    305.60204 
   21860   0.95884166   -9332.3838    329.39196     299.7275 
   21870   0.95884166   -9330.8541    369.12614    298.05355 
   21880   0.95884166   -9329.9327    280.55198    302.43495 
   21890   0.95884166   -9329.2563    364.01876    298.71353 
   21900   0.95884166   -9328.9494    399.55811    301.56617 
   21910   0.95884166   -9329.0641    205.52031    311.09264 
   21920   0.95884166   -9330.9241   -21.172031    317.72417 
   21930   0.95884166   -9334.3029    183.90139    305.98585 
   21940   0.95884166   -9338.6633    337.02923    301.43584 
   21950   0.95884166   -9343.0477    449.56905    298.74102 
   21960   0.95884166    -9347.112    534.74088    297.56267 
   21970   0.95884166   -9351.1607    520.29512    301.45661 
   21980   0.95884166   -9355.2808     304.2349    304.30631 
   21990   0.95884166   -9360.0585   -15.257161    307.74735 
   22000   0.95884166   -9365.6991   -139.03534    302.91254 
   22010   0.95884166   -9371.5958   -194.58418    302.09534 
   22020   0.95884166   -9377.7691   -198.15281    302.76719 
   22030   0.95884166   -9384.1977   -215.18968    301.08274 
   22040   0.95884166   -9390.5874   -157.19387    298.64393 
   22050   0.95884166    -9396.526   -108.83286    298.15873 
   22060   0.95884166   -9402.2695   -143.59139    299.07488 
   22070   0.95884166   -9407.1824    71.160606    289.56057 
   22080   0.95884166   -9411.2318    213.17475    289.31467 
   22090   0.95884166    -9413.937    250.65339    295.27036 
   22100   0.95884166   -9416.0103    328.42977    294.45165 
   22110   0.95884166   -9417.7162    322.77121    294.53993 
   22120   0.95884166   -9419.0014    215.11458    296.80096 
   22130   0.95884166   -9419.8608    171.44916    295.72366 
   22140   0.95884166   -9420.8886    61.772414    298.86906 
   22150   0.95884166   -9421.6263     105.4832    297.53156 
   22160   0.95884166   -9422.6298    207.56036    296.28573 
   22170   0.95884166   -9422.7598    433.42875    288.37942 
   22180   0.95884166   -9422.4615    393.55065    295.15085 
   22190   0.95884166   -9421.5807    250.07796    300.81606 
   22200   0.95884166   -9420.9014    165.69946    300.53196 
   22210   0.95884166   -9420.5607    186.70665    299.97112 
   22220   0.95884166   -9420.3306    346.35007    294.92653 
   22230   0.95884166    -9419.831    556.81642    292.66891 
   22240   0.95884166    -9418.497    596.03902    294.85766 
   22250   0.95884166   -9416.9277     451.6625    300.34273 
   22260   0.95884166   -9414.9549    487.96512    290.22776 
   22270   0.95884166   -9411.9702     275.9422    291.33222 
   22280   0.95884166   -9407.5658    61.847819    299.92331 
   22290   0.95884166   -9402.2213    153.30658     301.0478 
   22300   0.95884166   -9396.3297    251.24913     303.8812 
   22310   0.95884166   -9389.8191    366.05998    299.74998 
   22320   0.95884166   -9382.6698    449.80416    298.69748 
   22330   0.95884166   -9374.4497    556.90968    304.55813 
   22340   0.95884166   -9365.5959    743.00095    301.64652 
   22350   0.95884166   -9356.7824     823.9949    299.38087 
   22360   0.95884166   -9347.4807     844.8721    300.91118 
   22370   0.95884166   -9338.3536    857.67269    303.66359 
   22380   0.95884166   -9329.6918      890.756    301.25809 
   22390   0.95884166   -9321.7954    757.01888    305.25882 
   22400   0.95884166   -9314.8785    689.53606    304.97058 
   22410   0.95884166   -9309.4105    540.22799      309.642 
   22420   0.95884166   -9305.5041    561.68199     310.5109 
   22430   0.95884166   -9303.0806    840.05821    303.36955 
   22440   0.95884166   -9301.5615    1067.2256    296.25236 
   22450   0.95884166   -9300.1409    1082.4178    296.67701 
   22460   0.95884166   -9298.6886    839.17496     304.9325 
   22470   0.95884166   -9297.9217    613.47254    309.83107 
   22480   0.95884166   -9298.5751    605.10186    309.17914 
   22490   0.95884166   -9300.5392    797.29814    307.66439 
   22500   0.95884166   -9303.8748    801.31211    308.39537 
   22510   0.95884166   -9308.3182     525.8044    310.72977 
   22520   0.95884166   -9314.7392    277.36284    315.59121 
   22530   0.95884166   -9322.6919    457.14826    302.66014 
   22540   0.95884166    -9331.283    348.79827      303.221 
   22550   0.95884166   -9339.9875    299.86528    301.29011 
   22560   0.95884166    -9348.366    242.60482    303.50244 
   22570   0.95884166   -9356.7033    137.52315    304.93515 
   22580   0.95884166    -9364.488    53.591769    302.13236 
   22590   0.95884166   -9371.5188    67.799598    302.48601 
   22600   0.95884166   -9377.5205    261.19118    298.00352 
   22610   0.95884166   -9382.1891    517.94719     292.1741 
   22620   0.95884166   -9385.1601    785.39424    289.43821 
   22630   0.95884166   -9386.9448    688.41751    297.98664 
   22640   0.95884166    -9388.122    496.61554    298.05326 
   22650   0.95884166   -9389.1698    337.21004    298.58055 
   22660   0.95884166   -9390.2785    290.28648    300.70148 
   22670   0.95884166    -9391.531    387.95719    297.11941 
   22680   0.95884166   -9392.2063     437.1348    288.95516 
   22690   0.95884166   -9392.4949    129.83721    300.13121 
   22700   0.95884166   -9392.6948    60.432903    300.09069 
   22710   0.95884166   -9392.9852    62.715416     294.9987 
   22720   0.95884166   -9393.3317   -28.130298    299.21352 
   22730   0.95884166   -9393.0682   -3.9678713    295.97937 
   22740   0.95884166   -9393.3397   -131.04265    304.29122 
   22750   0.95884166   -9394.0365    65.375652    301.32635 
   22760   0.95884166   -9395.0312    373.16311    294.11241 
   22770   0.95884166   -9395.6541    458.87947    292.46316 
   22780   0.95884166   -9395.8558    355.83191    296.07817 
   22790   0.95884166   -9395.7567    373.82386    298.11323 
   22800   0.95884166   -9395.5026    653.92864    293.96172 
   22810   0.95884166   -9394.8399    867.23691    293.90916 
   22820   0.95884166   -9393.4988    1022.0878    291.09147 
   22830   0.95884166   -9391.3839    810.70794    293.83505 
   22840   0.95884166   -9388.7746     236.9356    305.78954 
   22850   0.95884166    -9386.414   -30.724963    304.59632 
   22860   0.95884166   -9384.7982   -69.753502      301.697 
   22870   0.95884166   -9383.3663     38.03763    298.48776 
   22880   0.95884166   -9381.8462    246.08898    293.99978 
   22890   0.95884166   -9380.1017    309.91486    301.22237 
   22900   0.95884166   -9377.9324    432.20817    295.72612 
   22910   0.95884166   -9375.4429    439.75414    293.59595 
   22920   0.95884166     -9371.94    491.24151    292.98099 
   22930   0.95884166   -9367.5085    495.06503    294.33791 
   22940   0.95884166   -9362.0747    362.70135    303.11187 
   22950   0.95884166   -9356.0744     537.7873    297.16937 
   22960   0.95884166   -9349.6567    565.14737    299.24527 
   22970   0.95884166   -9342.6631     371.3929    307.43324 
   22980   0.95884166   -9336.2183     234.0834    309.32487 
   22990   0.95884166     -9330.81    265.85697      307.589 
   23000   0.95884166   -9326.1658    266.28188    308.03967 
   23010   0.95884166   -9322.8587    211.23201    313.30308 
   23020   0.95884166   -9320.6568    544.41965    301.75241 
   23030   0.95884166   -9319.3363    653.10327    302.17899 
   23040   0.95884166   -9318.0195    673.92343    301.64786 
   23050   0.95884166    -9317.507    607.33299     303.6475 
   23060   0.95884166   -9317.4622    578.35173    303.08326 
   23070   0.95884166   -9318.2402    537.38977    304.89214 
   23080   0.95884166   -9319.6861    552.84835    297.26016 
   23090   0.95884166    -9321.299    365.72273    296.45349 
   23100   0.95884166    -9323.058    134.42355    305.09483 
   23110   0.95884166     -9325.92    140.88756    304.87183 
   23120   0.95884166   -9329.9512    174.30364    300.29889 
   23130   0.95884166   -9334.9575    223.23294    299.72964 
   23140   0.95884166   -9340.6072    441.73944    293.57662 
   23150   0.95884166   -9346.7117    449.77953    297.82165 
   23160   0.95884166   -9353.1994    422.58809    296.76697 
   23170   0.95884166   -9359.9634    269.38962     296.3723 
   23180   0.95884166   -9367.5676    137.48673    299.66321 
   23190   0.95884166   -9375.1176    251.70882    294.01424 
   23200   0.95884166   -9382.9701    255.57974    298.94234 
   23210   0.95884166   -9390.8447    351.26959    297.95742 
   23220   0.95884166   -9398.6446    433.84785    295.63821 
   23230   0.95884166   -9405.8625    495.59685    292.47054 
   23240   0.95884166   -9411.9949    516.36841    287.63025 
   23250   0.95884166   -9416.7607     401.2574    289.59413 
   23260   0.95884166   -9420.2699    311.58779    292.33194 
   23270   0.95884166   -9423.0969    313.04421    293.36279 
   23280   0.95884166   -9425.0033     415.1031    290.63595 
   23290   0.95884166   -9426.3434    411.37228    292.27356 
   23300   0.95884166   -9426.8264    340.04333    295.70164 
   23310   0.95884166   -9427.0116    330.34249    296.56093 
   23320   0.95884166   -9426.9463    315.75336    293.36762 
   23330   0.95884166    -9426.531     151.5881    296.07974 
   23340   0.95884166   -9425.7893    45.110064     296.5976 
   23350   0.95884166   -9424.9553    126.25026    293.49357 
   23360   0.95884166   -9423.2576    345.32923    287.25379 
   23370   0.95884166   -9420.6674    298.50369     296.9804 
   23380   0.95884166   -9417.4089    441.17285    297.19752 
   23390   0.95884166   -9413.9639    561.90386    293.84691 
   23400   0.95884166   -9409.7723    517.75742    290.65069 
   23410   0.95884166   -9404.6356    333.70179    296.02366 
   23420   0.95884166   -9398.4794     247.3886    301.08821 
   23430   0.95884166   -9391.9808    269.91903    301.74618 
   23440   0.95884166   -9385.2932    392.46215    299.38715 
   23450   0.95884166   -9377.9523    404.16388    301.22617 
   23460   0.95884166   -9369.9848    365.26161     299.7078 
   23470   0.95884166   -9361.6359     327.0402      302.966 
   23480   0.95884166   -9352.8376    346.05064    304.74778 
   23490   0.95884166   -9344.0628    312.68803    306.06253 
   23500   0.95884166   -9335.7822    305.65948    306.56485 
   23510   0.95884166   -9327.7289    372.61602    301.47768 
   23520   0.95884166   -9320.2412    227.83463    303.97031 
   23530   0.95884166   -9312.7231    128.80524    303.16735 
   23540   0.95884166   -9305.8981    3.5188057    305.16927 
   23550   0.95884166   -9299.7204   -68.717552    308.53706 
   23560   0.95884166   -9294.5576    15.836928    308.32611 
   23570   0.95884166     -9290.53    90.100487    308.90548 
   23580   0.95884166   -9287.6953    167.30711     308.9683 
   23590   0.95884166   -9286.0838    304.99037    311.08773 
   23600   0.95884166   -9286.1803    376.31648    314.29321 
   23610   0.95884166   -9288.1305     487.4493    304.06209 
   23620   0.95884166    -9291.543    235.41037    306.52433 
   23630   0.95884166   -9296.5575    10.234075    308.04898 
   23640   0.95884166     -9304.26   -76.354677    306.43894 
   23650   0.95884166   -9315.0345   -162.39817    305.61905 
   23660   0.95884166   -9329.2021   -290.48777     301.9196 
   23670   0.95884166   -9346.2274    -448.3558    302.78653 
   23680   0.95884166    -9364.326   -384.61574      299.917 
   23690   0.95884166   -9380.6001   -349.32672    295.19115 
   23700   0.95884166   -9393.2202   -574.82083    295.63482 
   23710   0.95884166   -9402.3547   -800.00546    298.68894 
   23720   0.95884166    -9409.225   -725.91274    300.11535 
   23730   0.95884166   -9414.2367   -300.08607     292.3925 
   23740   0.95884166   -9417.6869   -24.206683    289.58341 
   23750   0.95884166   -9419.8105   0.88618995    291.09936 
   23760   0.95884166   -9420.8562   -135.04269    294.84391 
   23770   0.95884166   -9421.4891    -275.3814    297.81789 
   23780   0.95884166   -9421.9562   -194.88899    295.18094 
   23790   0.95884166    -9422.068    -64.30452     292.4664 
   23800   0.95884166   -9421.6301   -148.74329    293.50134 
   23810   0.95884166   -9420.5586   -251.88772    294.15533 
   23820   0.95884166   -9419.0105   -227.35676    298.38384 
   23830   0.95884166   -9417.4345    11.071793    294.92689 
   23840   0.95884166   -9415.7113    121.49889    294.36983 
   23850   0.95884166   -9413.3241    145.78425    294.67241 
   23860   0.95884166   -9410.6531    173.97919     292.4692 
   23870   0.95884166   -9407.2113    64.238972    296.77752 
   23880   0.95884166   -9403.4656    38.165867    297.24166 
   23890   0.95884166   -9399.5733    103.02059    294.85374 
   23900   0.95884166   -9395.2998   -9.1191647    301.24387 
   23910   0.95884166   -9391.1512    84.880232    300.38143 
   23920   0.95884166   -9387.2186    392.88143    293.77468 
   23930   0.95884166   -9383.0423    469.60137    295.22956 
   23940   0.95884166   -9378.0554    380.55328    296.56736 
   23950   0.95884166    -9372.907    62.020192    301.44339 
   23960   0.95884166   -9368.2186   -324.24223    308.82625 
   23970   0.95884166    -9364.382   -409.97583    305.43912 
   23980   0.95884166    -9361.777    -452.4889    305.68112 
   23990   0.95884166   -9360.0073   -428.82541    305.29475 
   24000   0.95884166   -9359.0855   -261.45415    303.66804 
   24010   0.95884166   -9358.7095    152.67626    297.01512 
   24020   0.95884166   -9358.3314    495.17891    291.63395 
   24030   0.95884166   -9357.1152    589.35252    287.91483 
   24040   0.95884166   -9354.7997    373.58948    294.27784 
   24050   0.95884166   -9351.8138    192.10546    300.25083 
   24060   0.95884166   -9348.5181    114.98914    299.93895 
   24070   0.95884166   -9345.8185    24.019557     306.8914 
   24080   0.95884166   -9343.4717    287.95117    301.78776 
   24090   0.95884166   -9341.6643    414.79031    302.16783 
   24100   0.95884166   -9340.2287    510.07295    301.82205 
   24110   0.95884166   -9338.9463    614.32421    296.62601 
   24120   0.95884166   -9337.9308    347.49758    307.52918 
   24130   0.95884166   -9337.2352    303.74815    303.20618 
   24140   0.95884166    -9337.628    239.39694    306.40597 
   24150   0.95884166   -9338.8853    347.96471    304.83189 
   24160   0.95884166   -9341.1793    488.74807    298.03155 
   24170   0.95884166   -9344.1646    401.40629    301.40685 
   24180   0.95884166   -9347.8995    361.76322    300.95918 
   24190   0.95884166   -9352.4847    296.31799    300.15581 
   24200   0.95884166    -9358.141    94.368293    305.56177 
   24210   0.95884166   -9365.2275    47.970703    302.67337 
   24220   0.95884166   -9373.6061    41.632649    299.83599 
   24230   0.95884166   -9382.8472    58.697115    296.97982 
   24240   0.95884166   -9392.0174    70.064363    290.50421 
   24250   0.95884166   -9400.6504   -220.54478    298.50388 
   24260   0.95884166   -9409.1319   -280.75857    300.95965 
   24270   0.95884166   -9417.5873   -150.78119     298.6482 
   24280   0.95884166   -9425.3258    33.426294    292.70018 
   24290   0.95884166   -9431.8144    46.884218    289.74644 
   24300   0.95884166    -9436.822   -99.941149    291.34053 
   24310   0.95884166   -9440.5667   -235.29354    290.72618 
   24320   0.95884166   -9443.1192   -313.12833    290.18175 
   24330   0.95884166   -9444.8261   -371.09553    295.47195 
   24340   0.95884166   -9446.0842   -324.06254    295.95272 
   24350   0.95884166    -9446.968   -203.08216    291.69279 
   24360   0.95884166   -9446.9934   -197.85428    289.36396 
   24370   0.95884166    -9446.399    -368.7247    298.88843 
   24380   0.95884166   -9445.5622   -258.08592      298.588 
   24390   0.95884166    -9444.713   -113.90978    294.52857 
   24400   0.95884166   -9443.7913   -160.39095    299.00075 
   24410   0.95884166   -9442.5903   -80.809373    294.82585 
   24420   0.95884166   -9441.4489   -83.121626    298.40579 
   24430   0.95884166   -9440.4075   -147.44615    302.80017 
   24440   0.95884166   -9439.3641   -138.33086    296.94959 
   24450   0.95884166   -9438.5319   -155.39546    295.44855 
   24460   0.95884166   -9437.5285   -159.74498    297.24757 
   24470   0.95884166   -9435.9555    -50.50749    292.33462 
   24480   0.95884166   -9433.8834   -20.803187    293.65776 
   24490   0.95884166   -9431.1417   -58.825391    300.44725 
   24500   0.95884166   -9428.2564   -43.597516    299.09898 
   24510   0.95884166   -9425.0188   -84.448408    295.52693 
   24520   0.95884166   -9421.2041   -178.56937    297.37048 
   24530   0.95884166   -9416.4719   -154.21478     299.0558 
   24540   0.95884166   -9410.8528    45.353362    293.29549 
   24550   0.95884166   -9404.0423    43.456004    298.62889 
   24560   0.95884166   -9395.4834    140.79604    300.67219 
   24570   0.95884166   -9386.0059    155.14456    307.87416 
   24580   0.95884166   -9376.0654    269.35234    307.40583 
   24590   0.95884166   -9366.5054    285.46458    308.31605 
   24600   0.95884166   -9357.5933    299.02216    306.21867 
   24610   0.95884166   -9349.5549    370.00114    303.02386 
   24620   0.95884166   -9342.3089    332.66472    307.89609 
   24630   0.95884166   -9335.7909    340.09843    306.90892 
   24640   0.95884166   -9330.6079    274.43763    311.41898 
   24650   0.95884166   -9326.8735    360.10576     305.7458 
   24660   0.95884166   -9324.2692     374.9047    302.19924 
   24670   0.95884166   -9322.2469    358.33841    300.85724 
   24680   0.95884166   -9320.5694    408.34304    300.15217 
   24690   0.95884166   -9319.1084    396.39835    303.01686 
   24700   0.95884166   -9318.2352    350.12707    302.97598 
   24710   0.95884166   -9317.7333    281.81757    300.62759 
   24720   0.95884166   -9317.6283     173.4741    301.18163 
   24730   0.95884166   -9318.0491    48.937815    305.17767 
   24740   0.95884166   -9319.2444    123.45509    301.79615 
   24750   0.95884166    -9321.216    186.45859    299.76583 
   24760   0.95884166   -9323.8408    117.27762     300.4321 
   24770   0.95884166   -9327.0745    78.519279    301.61869 
   24780   0.95884166   -9331.6257    121.64706    302.42641 
   24790   0.95884166   -9337.5096    187.67644    299.72071 
   24800   0.95884166   -9345.0454    213.65591    298.34345 
   24810   0.95884166   -9354.0088    183.89206    297.23314 
   24820   0.95884166   -9364.9546   -12.884441    304.03448 
   24830   0.95884166   -9377.6778   -84.628642    305.22261 
   24840   0.95884166   -9391.8923   -38.682034    302.75665 
   24850   0.95884166   -9405.6718    100.63872    296.43636 
   24860   0.95884166   -9417.3863    105.73044    290.01773 
   24870   0.95884166   -9426.8564     -94.6794    294.36563 
   24880   0.95884166   -9433.9017   -101.29548    289.88185 
   24890   0.95884166   -9438.8889   -246.48757    291.28694 
   24900   0.95884166   -9442.5159   -391.24828    297.28392 
   24910   0.95884166   -9445.3283   -245.35454    293.44411 
   24920   0.95884166   -9447.3356   -135.84221    290.53609 
   24930   0.95884166   -9448.5471   -309.95767    297.23433 
   24940   0.95884166   -9449.2695   -304.02906    295.13074 
   24950   0.95884166   -9449.7541   -202.40952    293.49958 
   24960   0.95884166   -9449.5937   -93.803829    292.18834 
   24970   0.95884166   -9448.8947   -72.256622    294.70802 
   24980   0.95884166   -9447.9094     -140.406    299.72349 
   24990   0.95884166   -9446.9285   -276.37856    302.27085 
   25000   0.95884166   -9446.4752   -239.12644    302.62191 
   25010   0.95884166   -9446.4251    83.726473    299.30984 
   25020   0.95884166   -9446.4417    477.41972    290.69818 
   25030   0.95884166    -9445.889    565.13199     291.3503 
   25040   0.95884166    -9444.502    424.34978    295.65173 
   25050   0.95884166   -9442.7097    305.29075    294.65648 
   25060   0.95884166    -9440.309    259.33372    290.50379 
   25070   0.95884166   -9437.2526    131.76385    295.37674 
   25080   0.95884166   -9433.5289    89.108525    299.94559 
   25090   0.95884166   -9429.6033    108.54073    298.32558 
   25100   0.95884166    -9425.603    80.621796    298.09947 
   25110   0.95884166   -9421.2406    83.260234    296.80859 
   25120   0.95884166   -9416.6261    4.7774021    301.06651 
   25130   0.95884166   -9412.0477    4.2138294    303.85078 
   25140   0.95884166   -9407.5786    166.80373    296.00569 
   25150   0.95884166     -9402.98    168.02804    297.09266 
   25160   0.95884166   -9397.7924    80.767782    300.54123 
   25170   0.95884166   -9392.5108    122.91422    299.89891 
   25180   0.95884166   -9387.3144    235.87051    298.43471 
   25190   0.95884166   -9381.6206    298.50242    295.56639 
   25200   0.95884166   -9375.4863    168.90661    301.71667 
   25210   0.95884166   -9369.3687    47.885621     308.4702 
   25220   0.95884166   -9363.8865    177.08631     301.9713 
   25230   0.95884166   -9359.1675    194.36604    302.83955 
   25240   0.95884166   -9354.6232    275.11555    301.46645 
   25250   0.95884166   -9350.2175    363.45961    299.23171 
   25260   0.95884166   -9345.9309    206.49305    310.03065 
   25270   0.95884166   -9342.3011    209.28663    309.68877 
   25280   0.95884166   -9340.0115    268.25763     303.4009 
   25290   0.95884166   -9338.2885    195.36344    303.43969 
   25300   0.95884166   -9336.7922    176.89859    301.55684 
   25310   0.95884166   -9336.2482   -42.177068    312.34369 
   25320   0.95884166   -9336.8256    44.966464    305.87372 
   25330   0.95884166   -9338.7253    53.782342    301.38041 
   25340   0.95884166   -9341.6666   -38.614916    305.41072 
   25350   0.95884166   -9346.0271    19.552632    300.00927 
   25360   0.95884166   -9351.9077    42.324843    300.90094 
   25370   0.95884166   -9359.5037    75.586129    302.43155 
   25380   0.95884166   -9368.7901    35.307149    303.38899 
   25390   0.95884166   -9380.0777    105.15292    302.31148 
   25400   0.95884166   -9392.4021    318.92309    297.27811 
   25410   0.95884166   -9404.8828    369.19453     299.2352 
   25420   0.95884166   -9416.4292    452.61271    294.37395 
   25430   0.95884166   -9426.5163    469.04528    293.61706 
   25440   0.95884166   -9434.5473    539.17501    288.75099 
   25450   0.95884166   -9440.4449    482.10155    288.95747 
   25460   0.95884166   -9444.8361    314.05451     293.6083 
   25470   0.95884166   -9447.9935    275.42072    291.16009 
   25480   0.95884166   -9450.3074    136.79528    293.22144 
   25490   0.95884166   -9451.6041    118.72194    290.60156 
   25500   0.95884166   -9452.0953    127.07218     290.6066 
   25510   0.95884166    -9451.704    130.95074    291.13328 
   25520   0.95884166   -9450.6078    139.48741    290.09268 
   25530   0.95884166    -9448.602    134.88882    290.31642 
   25540   0.95884166     -9445.76    70.627208    294.57636 
   25550   0.95884166   -9442.4511     52.38387    294.91126 
   25560   0.95884166   -9438.8593    118.38811     293.7324 
   25570   0.95884166   -9434.5966    331.64582    289.40771 
   25580   0.95884166   -9429.7369    378.19319    292.57215 
   25590   0.95884166   -9424.0246    293.13941    294.86112 
   25600   0.95884166   -9418.0143     222.8167    297.99911 
   25610   0.95884166   -9411.9831    302.80665     294.2188 
   25620   0.95884166   -9405.9241    216.06469    297.69069 
   25630   0.95884166   -9399.8404    91.161106    300.53351 
   25640   0.95884166   -9394.2816   -42.939557    300.96536 
   25650   0.95884166   -9389.3165    -225.5924    307.64522 
   25660   0.95884166   -9385.4914   -220.35448     305.1339 
   25670   0.95884166   -9382.8697     -108.938    304.57305 
   25680   0.95884166   -9381.1498    197.16968    299.57303 
   25690   0.95884166   -9379.4585    323.58397    297.85537 
   25700   0.95884166   -9378.2061    198.07698    300.48378 
   25710   0.95884166   -9377.0265    71.151975    298.70312 
   25720   0.95884166   -9376.1934   -118.49897    305.39948 
   25730   0.95884166   -9375.8648   -131.95061    304.09775 
   25740   0.95884166   -9376.4068   -163.92408     301.0375 
   25750   0.95884166   -9377.4726   -205.60707    301.11592 
   25760   0.95884166    -9378.686   -108.21694    298.58951 
   25770   0.95884166   -9380.1963   -21.288727    297.92588 
   25780   0.95884166   -9381.8017   -50.072508    297.27655 
   25790   0.95884166   -9383.5513   -180.83597    299.99841 
   25800   0.95884166   -9385.5588   -186.53267    300.10602 
   25810   0.95884166   -9388.1901   -158.55377    302.68045 
   25820   0.95884166   -9391.4465    119.40032    296.14407 
   25830   0.95884166    -9395.408     378.1365    292.82061 
   25840   0.95884166     -9399.07    617.17965    286.80649 
   25850   0.95884166   -9402.5924    470.11911    293.46487 
   25860   0.95884166   -9406.3535    242.59349    299.36774 
   25870   0.95884166   -9411.2825    226.76377    298.11906 
   25880   0.95884166   -9417.4812    359.55888    294.49647 
   25890   0.95884166   -9424.5378     484.3865    291.33475 
   25900   0.95884166   -9432.2302    395.68135    296.51216 
   25910   0.95884166   -9440.8378    301.29039    295.68803 
   25920   0.95884166   -9449.7526    225.36695    291.06115 
   25930   0.95884166   -9458.1814    205.24155    289.51864 
   25940   0.95884166   -9466.2547    214.73156    292.68282 
   25950   0.95884166   -9473.5396    208.27326     291.4105 
   25960   0.95884166   -9479.8022    116.36622    286.48141 
   25970   0.95884166   -9484.4957    -76.08074     286.3337 
   25980   0.95884166   -9488.2173   -380.49323    298.29472 
   25990   0.95884166   -9491.4203   -234.33348    292.57065 
   26000   0.95884166   -9494.1955   -50.059588    288.72802 
   26010   0.95884166   -9495.7257    49.710507    287.80882 
   26020   0.95884166   -9496.2121   -66.278715    287.94974 
   26030   0.95884166   -9495.4532   -292.71289    287.59064 
   26040   0.95884166   -9493.5735   -469.09806    290.49957 
   26050   0.95884166   -9490.7257   -480.74754    290.80012 
   26060   0.95884166   -9486.8599   -433.37443    289.50491 
   26070   0.95884166    -9482.037   -394.50051    291.05352 
   26080   0.95884166   -9475.9199   -382.80929    292.94457 
   26090   0.95884166   -9468.9674   -322.02258     288.1879 
   26100   0.95884166   -9461.1378   -375.82585    293.32742 
   26110   0.95884166   -9452.5546   -343.87443    297.55193 
   26120   0.95884166   -9444.0955   -90.707504    292.10477 
   26130   0.95884166   -9435.6751    110.89827    295.11845 
   26140   0.95884166   -9427.3839    319.46496    294.21024 
   26150   0.95884166   -9419.5509    341.74528    295.21691 
   26160   0.95884166    -9412.632     265.1846    298.44774 
   26170   0.95884166   -9406.7688    120.95065    297.27383 
   26180   0.95884166   -9401.8244   -130.31413    299.48711 
   26190   0.95884166   -9397.6397   -180.98719    298.64215 
   26200   0.95884166   -9394.4793   -179.55275    303.15118 
   26210   0.95884166   -9392.2832   -117.04443    305.50306 
   26220   0.95884166   -9391.1488    38.302029    303.12658 
   26230   0.95884166   -9390.7391    263.30236    297.81201 
   26240   0.95884166   -9390.3762    402.60888    293.70275 
   26250   0.95884166   -9389.5491    409.20146     294.5446 
   26260   0.95884166   -9388.4892    422.90672    295.58736 
   26270   0.95884166   -9387.2313    458.67845    295.54627 
   26280   0.95884166   -9385.5422    510.07074    291.97688 
   26290   0.95884166   -9383.2808    415.63365    297.08929 
   26300   0.95884166   -9381.0375     472.0489     297.4731 
   26310   0.95884166   -9378.6729    568.57987    297.37583 
   26320   0.95884166   -9376.3105    689.98975    295.72974 
   26330   0.95884166   -9373.7334    819.76744    294.47584 
   26340   0.95884166   -9370.8806    840.34684    301.12783 
   26350   0.95884166    -9368.222    883.86738    299.69708 
   26360   0.95884166   -9365.7841     831.2507    298.51153 
   26370   0.95884166   -9363.3086    792.13258    297.27009 
   26380   0.95884166   -9360.7065     759.5534    299.25409 
   26390   0.95884166    -9358.174     834.3529    299.78814 
   26400   0.95884166   -9355.7161    756.78766    300.94739 
   26410   0.95884166   -9353.7237     384.2587    308.58913 
   26420   0.95884166   -9352.6821    249.85423    309.00599 
   26430   0.95884166   -9352.7989    370.29847    303.73064 
   26440   0.95884166   -9353.9211    293.82838    307.07955 
   26450   0.95884166   -9356.1512    310.94763    307.78984 
   26460   0.95884166   -9360.0266    397.15041    304.79422 
   26470   0.95884166   -9364.9833    481.18402    296.03029 
   26480   0.95884166   -9370.8219    340.26304    299.09826 
   26490   0.95884166   -9377.9391    160.34346    305.76127 
   26500   0.95884166   -9386.4588    244.20475    294.25481 
   26510   0.95884166     -9395.53    143.89447    293.98281 
   26520   0.95884166   -9405.2084    21.420985     298.6329 
   26530   0.95884166   -9415.3857    127.07617    294.53762 
   26540   0.95884166   -9425.0826    236.33913    289.41149 
   26550   0.95884166    -9433.572    239.67676    289.90739 
   26560   0.95884166   -9440.6578    298.06481    289.92873 
   26570   0.95884166   -9446.5041    215.89809    291.36524 
   26580   0.95884166   -9451.0475    123.11339    290.58352 
   26590   0.95884166   -9454.5948    82.433636     293.6096 
   26600   0.95884166   -9456.9888    246.25404    288.60853 
   26610   0.95884166   -9458.4024    214.39227    291.56769 
   26620   0.95884166   -9458.9324    166.93835    292.43321 
   26630   0.95884166   -9458.7023    257.50875     285.6055 
   26640   0.95884166   -9457.1644    178.55501    289.67008 
   26650   0.95884166   -9455.0305    30.230298     296.1988 
   26660   0.95884166    -9452.442   -31.816851    296.93533 
   26670   0.95884166   -9450.2135   -181.83669    303.30715 
   26680   0.95884166   -9448.4246    1.7850482     296.4319 
   26690   0.95884166   -9446.8748    185.54063    291.62974 
   26700   0.95884166   -9444.6646    182.60629    294.94793 
   26710   0.95884166   -9442.0443    145.69411    295.35853 
   26720   0.95884166   -9439.4496     108.5541    296.13994 
   26730   0.95884166   -9436.8931    112.04512    297.59398 
   26740   0.95884166   -9434.3015    179.81374    295.45103 
   26750   0.95884166   -9431.7748    235.82288     293.9744 
   26760   0.95884166   -9428.8986    249.11691    294.34983 
   26770   0.95884166   -9425.8973    90.182135    297.50362 
   26780   0.95884166   -9423.2149   -224.15639    303.37554 
   26790   0.95884166   -9421.1461   -325.80977    303.17684 
   26800   0.95884166   -9419.6336   -174.27669    293.90856 
   26810   0.95884166   -9417.9681   -101.34865     290.6789 
   26820   0.95884166   -9415.9429   -163.85956    294.93885 
   26830   0.95884166   -9413.5351   -239.03972    297.78659 
   26840   0.95884166   -9411.6893   -299.50369    303.04464 
   26850   0.95884166   -9410.0362   -47.978593    293.82057 
   26860   0.95884166   -9408.6133    4.8705603    297.08694 
   26870   0.95884166   -9407.1421    136.01156    293.80323 
   26880   0.95884166   -9405.4869    191.44553    294.56476 
   26890   0.95884166   -9403.7439    240.12311    293.57751 
   26900   0.95884166   -9401.7319    203.26041    293.70828 
   26910   0.95884166   -9399.7277    48.433981    298.70703 
   26920   0.95884166   -9397.8265   -8.5343605    298.20548 
   26930   0.95884166   -9396.3741   -71.618615    302.49621 
   26940   0.95884166    -9395.473    41.066434    301.12195 
   26950   0.95884166      -9395.3    179.11767     301.4376 
   26960   0.95884166   -9395.1542    519.65579     292.7957 
   26970   0.95884166   -9394.7143    662.37534    294.91548 
   26980   0.95884166     -9393.77    675.32588    296.80938 
   26990   0.95884166   -9392.8649    587.07011     298.6053 
   27000   0.95884166   -9392.1666    509.55877    300.60497 
   27010   0.95884166   -9391.6588    538.84056    298.20277 
   27020   0.95884166     -9391.21    444.48814    299.32139 
   27030   0.95884166   -9391.0121    316.98197    303.28615 
   27040   0.95884166   -9391.2387    333.68192    300.35943 
   27050   0.95884166   -9391.9005    202.84993    299.12869 
   27060   0.95884166   -9392.7615   -62.682383    301.69555 
   27070   0.95884166   -9393.8037   -186.00409    301.72618 
   27080   0.95884166   -9395.7998    -121.1098    302.46617 
   27090   0.95884166   -9397.9772     157.7559    293.35952 
   27100   0.95884166    -9399.503    295.81702    289.06868 
   27110   0.95884166   -9400.5573    3.1330268    299.48116 
   27120   0.95884166   -9401.5065   -282.28183    301.54711 
   27130   0.95884166   -9402.7104   -377.81595    295.71598 
   27140   0.95884166    -9404.522   -662.72994    309.67678 
   27150   0.95884166   -9407.3915   -433.86979    302.23429 
   27160   0.95884166   -9411.0854   -216.61626    298.14875 
   27170   0.95884166   -9415.7033   -218.34157    302.82026 
   27180   0.95884166   -9421.2707   -85.480806    296.98001 
   27190   0.95884166   -9427.9039   -72.865725    298.30063 
   27200   0.95884166   -9435.2616    14.070685    295.58236 
   27210   0.95884166   -9443.7057    180.48672     293.5488 
   27220   0.95884166   -9452.3292    506.13552    285.48923 
   27230   0.95884166   -9460.3719    412.57294    289.06717 
   27240   0.95884166   -9468.2298    111.66382    294.28169 
   27250   0.95884166   -9476.1082    74.294326    292.24179 
   27260   0.95884166   -9483.6072    197.77761    287.10872 
   27270   0.95884166   -9489.8179    156.95642    285.47862 
   27280   0.95884166   -9495.3736   -143.14155    297.01127 
   27290   0.95884166   -9500.4099   -82.220292    295.09524 
   27300   0.95884166   -9505.1493    170.98799    289.60694 
   27310   0.95884166    -9509.061    210.31597    288.06553 
   27320   0.95884166   -9511.8892   -38.471214    289.40234 
   27330   0.95884166   -9513.9609   -327.94302    292.76635 
   27340   0.95884166   -9515.2739    -361.2669    290.37443 
   27350   0.95884166    -9515.975   -343.43842    292.44084 
   27360   0.95884166   -9515.9629   -250.90221    290.96285 
   27370   0.95884166   -9514.9731   -79.819351    286.70236 
   27380   0.95884166   -9513.0387   -57.662861    297.88384 
   27390   0.95884166   -9509.9012     173.9863    292.21303 
   27400   0.95884166   -9505.8095    275.37773     293.0239 
   27410   0.95884166    -9499.843    651.10169    284.96787 
   27420   0.95884166   -9491.5416    727.78297     287.1737 
   27430   0.95884166   -9480.1003    453.91514    298.27998 
   27440   0.95884166   -9466.4067    341.58825    298.11168 
   27450   0.95884166   -9452.1154    366.99416    296.20889 
   27460   0.95884166   -9438.1919    407.18856     298.9092 
   27470   0.95884166   -9425.8616    445.08947    301.38074 
   27480   0.95884166    -9415.701    633.01037    297.00763 
   27490   0.95884166   -9407.7232    641.73568    300.95263 
   27500   0.95884166   -9401.4145    729.48454     294.6158 
   27510   0.95884166   -9396.2624    617.04362     296.6915 
   27520   0.95884166   -9391.9518    526.61611    301.59218 
   27530   0.95884166   -9388.4276     529.8488    300.80607 
   27540   0.95884166   -9385.8373    331.78933    305.85429 
   27550   0.95884166   -9384.4743    135.40173    312.33463 
   27560   0.95884166   -9384.6497    303.74879    307.48127 
   27570   0.95884166    -9386.065    566.33467      304.191 
   27580   0.95884166   -9388.1949    765.70722    299.52775 
   27590   0.95884166   -9390.2423    688.84216    297.08799 
   27600   0.95884166   -9392.3178    446.42581    298.89109 
   27610   0.95884166    -9394.506    211.43741    301.09384 
   27620   0.95884166    -9396.868    69.738591    301.21108 
   27630   0.95884166   -9400.0327   -14.897077    303.97864 
   27640   0.95884166   -9403.7151    105.64018    300.34485 
   27650   0.95884166   -9407.8923    237.61744    299.91762 
   27660   0.95884166   -9412.0911    446.90911    293.62933 
   27670   0.95884166   -9415.7246     582.6333    289.12078 
   27680   0.95884166   -9418.6702    454.00334    296.65174 
   27690   0.95884166   -9421.3793    368.99881    298.00473 
   27700   0.95884166    -9424.108    235.12457    297.34211 
   27710   0.95884166   -9427.0284   -34.531679    300.26428 
   27720   0.95884166   -9430.4132   -155.53697    302.25853 
   27730   0.95884166   -9434.2699     7.707572    296.14627 
   27740   0.95884166   -9438.0197    174.07632    292.40634 
   27750   0.95884166   -9441.1769    317.87036    289.52834 
   27760   0.95884166   -9443.5736     202.2671    292.24432 
   27770   0.95884166   -9445.7081    33.125872    299.91493 
   27780   0.95884166   -9447.6047    225.61453    292.14442 
   27790   0.95884166   -9449.1341    211.86215    293.26935 
   27800   0.95884166   -9450.5648    55.408573    299.96915 
   27810   0.95884166   -9451.9155    126.37298    293.13765 
   27820   0.95884166   -9453.3195    8.4100592     297.5219 
   27830   0.95884166   -9454.2943    20.538953    295.17745 
   27840   0.95884166   -9455.4423   -107.61153    300.67066 
   27850   0.95884166   -9457.0666   -79.456819    298.52201 
   27860   0.95884166   -9458.8033    57.153436     291.8782 
   27870   0.95884166   -9460.0366       125.96    292.34291 
   27880   0.95884166   -9460.8019    183.88849    289.23349 
   27890   0.95884166    -9460.732    111.65498    289.14731 
   27900   0.95884166   -9459.6084   -25.018808    292.90337 
   27910   0.95884166   -9457.3927   -25.601001    290.76216 
   27920   0.95884166   -9454.0699   -103.79598    293.95559 
   27930   0.95884166   -9449.6987   -223.08388    297.57801 
   27940   0.95884166   -9444.3155   -288.13035    299.42131 
   27950   0.95884166   -9438.5376   -265.92803    299.09895 
   27960   0.95884166   -9432.4351   -179.45301    296.78854 
   27970   0.95884166   -9425.8492   -151.12305    296.45736 
   27980   0.95884166   -9418.6449   -52.154069    294.91404 
   27990   0.95884166   -9410.8108    99.074097    291.81647 
   28000   0.95884166   -9402.3428    53.392411    295.27768 
   28010   0.95884166   -9393.4345   -45.087151    300.85689 
   28020   0.95884166   -9385.1549   -109.70108    304.93221 
   28030   0.95884166    -9377.935   -72.080443    302.19804 
   28040   0.95884166   -9371.7037    120.14934    296.74737 
   28050   0.95884166   -9365.9447    253.57321     298.5595 
   28060   0.95884166   -9360.5819    365.85931    296.56036 
   28070   0.95884166   -9355.5385    363.30796    301.30063 
   28080   0.95884166   -9350.9261    536.57862    297.17898 
   28090   0.95884166   -9346.6832    697.54346    294.55796 
   28100   0.95884166    -9342.307    697.30778    297.98607 
   28110   0.95884166   -9338.2871    610.13995    301.10434 
   28120   0.95884166   -9334.6598    531.53713    301.67953 
   28130   0.95884166   -9331.7014    434.19119    303.55142 
   28140   0.95884166   -9329.5468    250.37834    308.11886 
   28150   0.95884166   -9328.7514    90.519314    309.01773 
   28160   0.95884166   -9329.0237    31.266365    301.52462 
   28170   0.95884166    -9330.171   -123.33894    307.53094 
   28180   0.95884166   -9332.0941    36.931388    303.78096 
   28190   0.95884166   -9334.8477    151.26859    299.13771 
   28200   0.95884166   -9337.6972    19.236658    301.60022 
   28210   0.95884166   -9340.9718   -57.384718    303.40421 
   28220   0.95884166   -9345.0826   -86.664934    304.40429 
   28230   0.95884166   -9350.0792   -186.13977    305.04677 
   28240   0.95884166   -9356.2693   -240.68656    305.31668 
   28250   0.95884166   -9362.8933   -152.99171    298.55329 
   28260   0.95884166   -9369.7379   -85.829128    296.48721 
   28270   0.95884166   -9376.3778    25.896852    295.64489 
   28280   0.95884166   -9382.6496    145.76668    294.87841 
   28290   0.95884166   -9388.3996    91.477968    298.67565 
   28300   0.95884166   -9394.1737   -17.028525    302.15145 
   28310   0.95884166   -9399.8675    71.285993    297.51543 
   28320   0.95884166   -9405.0404    224.99687     293.4791 
   28330   0.95884166   -9409.5311    140.21201    300.89386 
   28340   0.95884166   -9413.8576    87.922149    302.97278 
   28350   0.95884166   -9418.1988    240.10852    294.30714 
   28360   0.95884166   -9421.3561    345.16902    289.04601 
   28370   0.95884166   -9423.5977    206.86364    296.62686 
   28380   0.95884166   -9425.0934    163.74631    297.83184 
   28390   0.95884166   -9426.4524    84.548906    298.81742 
   28400   0.95884166   -9427.4937    7.7346652    298.44887 
   28410   0.95884166   -9428.7999   -120.86225     304.1022 
   28420   0.95884166   -9430.0598    77.092971    298.04774 
   28430   0.95884166   -9431.0798    350.11157    291.57998 
