
variable systemNsize equal 10
variable rndSeed equal 1234
variable Nrun equal 500000
variable Nstab equal 5000
variable NdumpStats equal 10
variable NdumpFrames equal 1000
variable Text equal 298.0
variable Pext equal 1.0

units real
    # g/mol, A, fs, Kcal/mol, K, atm, g/cm^3
atom_style full
read_data SPCE.data
  orthogonal box = (0 0 0) to (3.1 3.1 3.1)
  1 by 2 by 3 MPI processor grid
  reading atoms ...
  3 atoms
  scanning bonds ...
  2 = max bonds/atom
  scanning angles ...
  1 = max angles/atom
  reading bonds ...
  2 bonds
  reading angles ...
  1 angles
  2 = max # of 1-2 neighbors
  1 = max # of 1-3 neighbors
  1 = max # of 1-4 neighbors
  2 = max # of special neighbors
  special bonds CPU = 0.000595093 secs
  read_data CPU = 0.00348687 secs

replicate ${systemNsize} ${systemNsize} ${systemNsize}
replicate 10 ${systemNsize} ${systemNsize}
replicate 10 10 ${systemNsize}
replicate 10 10 10
  orthogonal box = (0 0 0) to (31 31 31)
  1 by 2 by 3 MPI processor grid
  3000 atoms
  2000 bonds
  1000 angles
  2 = max # of 1-2 neighbors
  1 = max # of 1-3 neighbors
  1 = max # of 1-4 neighbors
  2 = max # of special neighbors
  special bonds CPU = 0.000452042 secs
  replicate CPU = 0.00211406 secs

include SPCE.long
# Original model from Berendsen et al, J Phys Chem 91:6269 (1987)
# Charges and geometry are specified in the ".data" file.

mass 1 1.00794 # H
mass 2 15.9994 # O

pair_style lj/cut/coul/long 10.0
    # LJ_Rcut (Coul_Rcut)
pair_modify tail yes
    # assumtions and approximations:
    # 1) 3d bulk homogeneous liquid (+)
    # 2) RDF is unity beyond the cutoff
    # 3) It's computed at the begining of the run
    # 4) atoms don't feel additional energy but it's added to the PE etc
kspace_style pppm 1.0e-5
    # accuracy - desired relative error in forces

pair_coeff 1 1 0.00000 0.000
pair_coeff 1 2 0.00000 0.000
    # TODO - I would put here the sizes of H and O atoms instead of one big LJ repulsion from the O atom. What "e" to choose is still a question.
pair_coeff 2 2 0.65 3.166
    # epsilon, sigma, [LJ_Rcut, [Coul_Rcut]]
    # distance between H and O is 1.0 so 3.166 > 1.0 accounts for the size of a molecule as a whole
    # I guess the major part in forces inside a molecule are indeed due to OH and HOH (angle) bondings, so computing LJ and Coul for them would be practically a waste of time so it may be ommitted. So I see only an optimizational reason to set LJ coefs to 0 for H atoms inside a molecule. However here (as far as I understand) we set all LJ coefs to 0. I understand LJ is a short-rage potential so its contribution can be neglegible compared to Coul, but it's not obvious for me why it actually is.
    # TODO - there might be a more correct way to ommit unnecessary interaction by using special_bond

bond_style harmonic
    # E = k(r-r0)^2
bond_coeff 1 0.0 1.0
    # bondID k r0
    # ? - how does k=0 make sense?
    # Is this to formaly bond atoms but actual bonding is done by rattle?

angle_style harmonic
angle_coeff 1 0.0 109.47
    # ? - same, how does k=0 make sense?


velocity all create ${Text} ${rndSeed}
velocity all create 298 ${rndSeed}
velocity all create 298 1234

fix removeMomentum all momentum 1 linear 1 1 1 angular
    # 1 - adjust the momentum every 1 timesteps
    # linear 1/0 1/0 1/0 - zero the P_x/y/z
    # angular - zero angular momentum (TODO - add "angular" here?)
    # scale - scale velocities after the adjustment so T is conserved (TODO - add "scale" here?)

fix stab_iso all npt temp ${Text} ${Text} $(50.0*dt) iso ${Pext} ${Pext} $(500.0*dt)
fix stab_iso all npt temp 298 ${Text} $(50.0*dt) iso ${Pext} ${Pext} $(500.0*dt)
fix stab_iso all npt temp 298 298 $(50.0*dt) iso ${Pext} ${Pext} $(500.0*dt)
fix stab_iso all npt temp 298 298 50 iso ${Pext} ${Pext} $(500.0*dt)
fix stab_iso all npt temp 298 298 50 iso 1 ${Pext} $(500.0*dt)
fix stab_iso all npt temp 298 298 50 iso 1 1 $(500.0*dt)
fix stab_iso all npt temp 298 298 50 iso 1 1 500
    # Tstart,Tstop = external temperature at start/end of run
    # Tdamp = temperature damping parameter (time units)
    # temp - for thermostat, iso - for barostat

fix stab_constrain all rattle 1.0e-5 100 0 b 1 a 1
  0 = # of size 2 clusters
  0 = # of size 3 clusters
  0 = # of size 4 clusters
  1000 = # of frozen angles
  find clusters CPU = 0.000256062 secs
    # fix ID group-ID shake tol iter N constraint1 value1 ...
    # iter - max # of iterations in each SHAKE solution
    # print SHAKE statistics every N many timesteps (0 = never)
    # b - bonds, a - angles
    # b 1 - bonds of type 1
    # a 1 - bonds of type 1
    # shake adds forces to make the displacement satisfy constraints - e.g. |r_ij|=d
    # rattle does the same and additionally it refines velocities - e.g. (|r|)'_t = 0.
    # *should be defined after other force- and v- modifiers since it doesn't account for them

thermo_style custom step density press temp
thermo ${NdumpStats}
thermo 10
run ${Nstab}
run 5000
PPPM initialization ...
  using 12-bit tables for long-range coulomb (src/kspace.cpp:332)
  G vector (1/distance) = 0.305114
  grid = 27 27 27
  stencil order = 5
  estimated absolute RMS force accuracy = 0.00306414
  estimated relative force accuracy = 9.22755e-06
  using double precision FFTW3
  3d grid and FFT values/proc = 10880 3645
Neighbor list info ...
  update every 1 steps, delay 10 steps, check yes
  max neighbors/atom: 2000, page size: 100000
  master list distance cutoff = 12
  ghost atom cutoff = 12
  binsize = 6, bins = 6 6 6
  1 neighbor lists, perpetual/occasional/extra = 1 0 0
  (1) pair lj/cut/coul/long, perpetual
      attributes: half, newton on
      pair build: half/bin/newton
      stencil: half/bin/3d/newton
      bin: standard
Per MPI rank memory allocation (min/avg/max) = 9.834 | 10.02 | 10.29 Mbytes
Step Density Press Temp 
       0    1.0041648    50479.628    296.38482 
      10   0.99700539    41713.557     402.8505 
      20   0.97937175    22789.155    901.49031 
      30   0.96177521     15218.77    1056.9103 
      40   0.94867849    14748.859    882.75667 
      50   0.93765744    12918.763    789.12955 
      60   0.92722841    10901.396    728.08032 
      70   0.91735262     9254.458    678.18899 
      80   0.90834111    7784.9475    640.07442 
      90   0.90040603    6220.0046    627.11559 
     100   0.89358934    5316.5461    588.74077 
     110   0.88771626     4261.079    559.36092 
     120   0.88266744    2926.2155    546.81714 
     130   0.87841205    2181.7535     504.6737 
     140   0.87484694    1355.6965    477.37645 
     150   0.87191727    556.54645    454.37829 
     160   0.86960843   -205.19253    442.33721 
     170   0.86791532   -721.53417      426.825 
     180   0.86680305   -1113.2129    409.46333 
     190   0.86622839   -1501.7972    400.30291 
     200   0.86616772      -1732.1    384.95868 
     210    0.8665793   -1911.4788    371.21185 
     220   0.86742329   -2099.6493    364.72343 
     230   0.86867487   -2288.2038    362.45793 
     240   0.87031196   -2225.7725    347.17569 
     250   0.87226673   -2220.3783    338.77046 
     260   0.87448338   -2271.1277    334.29506 
     270   0.87692584   -2157.7234     325.4055 
     280   0.87952499   -1937.3082    316.86993 
     290   0.88219013   -1701.8362    309.76025 
     300   0.88484617   -1634.8818     304.3503 
     310   0.88747329   -1772.9221    305.37176 
     320    0.8901026   -1829.7784    301.48519 
     330   0.89274758   -1815.5351    303.72877 
     340   0.89539094   -1512.5218    295.67327 
     350   0.89795816     -1231.09    286.92605 
     360    0.9003909   -1173.1951    287.95332 
     370   0.90269297   -1115.1442    288.47949 
     380   0.90487322   -957.52677    286.06989 
     390   0.90692039   -902.54709    287.20466 
     400   0.90884749   -968.66976    289.92507 
     410   0.91069552   -1049.7582    296.99073 
     420   0.91249865    -928.6362    296.02121 
     430   0.91424304   -792.46129    294.04345 
     440   0.91590759     -717.948    295.39402 
     450   0.91748618   -574.99496    290.22473 
     460   0.91896475   -573.94164    292.76504 
     470   0.92035953   -622.63244    294.04262 
     480   0.92170262   -722.76282    300.74746 
     490   0.92302317   -558.41258    295.71951 
     500   0.92429446    -459.3076    293.66058 
     510   0.92549625    -370.3624    291.61963 
     520   0.92662127   -380.69936    296.52599 
     530   0.92768141   -355.44995    298.24365 
     540   0.92868383   -274.30051    294.59699 
     550    0.9296187   -216.13623    295.45982 
     560   0.93048027    -162.3768     298.9476 
     570   0.93126451   -68.617708    298.74624 
     580   0.93196352   -132.02419    302.32223 
     590    0.9326063    -268.5249    306.28362 
     600   0.93323456   -232.30767    300.96937 
     610   0.93384987    -314.3482    306.49251 
     620   0.93447022   -357.95152    310.44428 
     630   0.93510624   -211.67406    304.25863 
     640   0.93571967     45.43962    289.48236 
     650   0.93625791   -87.520468    290.43518 
     660   0.93675471   -248.50864    293.31071 
     670   0.93726011   -334.73285    297.29832 
     680   0.93779816   -442.09981    304.76244 
     690   0.93838846   -302.51345    296.86108 
     700   0.93899929    -234.0984    292.78319 
     710   0.93961017   -319.80877    294.25965 
     720   0.94024327   -423.31338    296.43105 
     730   0.94092026   -364.78737    295.45202 
     740   0.94162452    -259.9318    295.04422 
     750   0.94232445   -154.54201    291.24536 
     760    0.9429995   -280.89112     295.5347 
     770   0.94368169   -440.10075    304.07912 
     780   0.94440622   -269.76539    300.27936 
     790   0.94512974    22.661679    291.88969 
     800   0.94577511    195.58727    292.25029 
     810    0.9463016    238.37999    298.63426 
     820   0.94670532    347.62927     299.5409 
     830   0.94696883    519.38532    296.08864 
     840   0.94706216    603.28505    294.86291 
     850   0.94697982    534.82042    295.22922 
     860   0.94675971    272.65425    299.92429 
     870   0.94648585   -39.137268     308.8097 
     880   0.94623977    -32.35574     305.3209 
     890   0.94602795   -5.2546816    305.44135 
     900   0.94583176    168.75347     297.9229 
     910   0.94561636    7.1581767    299.60057 
     920   0.94542213   -335.71753    300.16321 
     930   0.94534357   -689.19902    303.32498 
     940   0.94545717   -692.07392    300.97676 
     950   0.94575389   -543.87001    297.92197 
     960   0.94618064   -493.88901    298.55981 
     970   0.94670854    -362.6407    292.61468 
     980   0.94729291   -151.37895    286.84065 
     990   0.94787129    28.881852    284.48699 
    1000   0.94839684    31.659916    290.09363 
    1010   0.94887151   -93.777797    299.66972 
    1020    0.9493263   -6.1306048    294.34726 
    1030   0.94975307   -112.71731    297.34889 
    1040   0.95017338   -146.18952    295.29089 
    1050   0.95060538   -267.31553    301.42291 
    1060   0.95107015   -102.22078    299.02639 
    1070   0.95152364    236.89769    290.20531 
    1080   0.95188561    171.88832    299.87422 
    1090   0.95216586    179.93496    301.80022 
    1100   0.95237471      125.303    308.19941 
    1110   0.95252778     175.7329    305.48969 
    1120   0.95262145    251.01566    294.49017 
    1130   0.95264598    61.471421    294.44557 
    1140   0.95265429   -241.12233    303.21482 
    1150   0.95272451    -366.7782    306.49077 
    1160   0.95289119   -356.71034    304.64114 
    1170   0.95314274   -181.68109     299.2056 
    1180   0.95342775    41.267277    294.19898 
    1190    0.9536833    168.75902    291.89678 
    1200   0.95387458    183.01524    294.43954 
    1210   0.95399947    187.41236    297.58864 
    1220   0.95406302    149.69487    301.88704 
    1230   0.95407748    133.78543    303.03708 
    1240   0.95405031    205.24866    298.24466 
    1250   0.95397008    172.73138    296.87513 
    1260   0.95384935    5.7941548    299.84431 
    1270   0.95373517   -186.17049    304.75983 
    1280   0.95367398   -125.59093    298.99475 
    1290   0.95365575   -73.052152    294.50419 
    1300   0.95365809    29.138526    288.49271 
    1310   0.95365591   -8.9611889    293.75334 
    1320   0.95365446    -49.85583     296.1088 
    1330   0.95366848   -90.586982    295.06816 
    1340   0.95371046   -195.40036    298.69045 
    1350   0.95380003   -82.581164    294.42062 
    1360   0.95390641     119.8505    293.04099 
    1370   0.95396953    356.86397    292.94969 
    1380   0.95392654     516.1939    291.33979 
    1390   0.95374687    338.54474    298.98447 
    1400   0.95347983    137.72978    302.72624 
    1410   0.95318776    37.397973    301.45516 
    1420   0.95290205   -12.963131    302.39394 
    1430   0.95263308     95.71093    295.52627 
    1440   0.95235737    66.879999    296.19084 
    1450   0.95207872   -21.940396    301.31709 
    1460   0.95181743    13.075831    300.73728 
    1470   0.95157066   -80.357188    303.29609 
    1480   0.95135905   -141.98933    301.08709 
    1490   0.95120019   -148.08193    296.95527 
    1500   0.95109312   -116.37111    295.12242 
    1510   0.95102574   -75.312323    296.33801 
    1520   0.95098462   -109.17803    303.49645 
    1530   0.95097291   -38.221665    300.96328 
    1540   0.95097585   -84.400528    305.30955 
    1550   0.95099817   -13.759079    302.25848 
    1560   0.95102254    130.25715    291.64244 
    1570   0.95101628     16.17003    291.41945 
    1580   0.95100852   -252.74096    297.00492 
    1590   0.95107539   -551.81059    302.20549 
    1600   0.95129377   -646.17657    303.30056 
    1610    0.9516833   -534.23695    304.93314 
    1620    0.9522029   -264.61187    301.30632 
    1630   0.95277308     27.67751    294.35021 
    1640   0.95331187    162.39335    294.49097 
    1650   0.95377806    224.05252    293.47842 
    1660     0.954162    148.63762    294.16156 
    1670    0.9544839    75.467136    292.34723 
    1680   0.95477234   -79.662919    295.70419 
    1690   0.95506868   -178.79008    294.21964 
    1700   0.95540711   -336.87021     298.6432 
    1710   0.95581747   -158.95917    298.63971 
    1720   0.95625294    120.92093    296.31231 
    1730    0.9566382    231.89244    295.48064 
    1740   0.95693641    403.23328    289.01073 
    1750   0.95710995    418.86658    290.94243 
    1760   0.95715651    335.09657    290.90501 
    1770   0.95710862     133.9196    288.13836 
    1780   0.95702918   -183.63775    297.03558 
    1790   0.95699664   -170.23887    298.04315 
    1800   0.95701412   -88.512439    300.81326 
    1810    0.9570555    8.8298567    301.60221 
    1820   0.95709334    102.17211     301.8772 
    1830   0.95709962    187.75113     300.4918 
    1840   0.95705628    148.40765    303.66836 
    1850    0.9569703    94.043651    309.27304 
    1860   0.95685875    97.172724    307.94768 
    1870   0.95672551    34.929641    308.74825 
    1880   0.95658816   -68.614612    307.75003 
    1890    0.9564741   -78.310364    299.74902 
    1900   0.95639217   -225.63117    304.36163 
    1910   0.95637291   -244.92277    307.43853 
    1920   0.95642521   -227.51375    308.79163 
    1930   0.95653798   -110.30322    303.32996 
    1940   0.95667723    72.876096    292.22636 
    1950   0.95679983   -59.784307    291.23167 
    1960   0.95693978   -398.25424     297.6168 
    1970   0.95718529   -569.67078    296.00592 
    1980   0.95758552    -619.5787    294.93759 
    1990   0.95814799   -527.15357    294.31881 
    2000   0.95884166   -350.15477    292.42358 
    2010   0.95961113   -109.20236    288.81162 
    2020   0.96038654    78.340812    290.10189 
    2030     0.961115    148.93019    288.81002 
    2040   0.96177869    92.092932    290.80189 
    2050   0.96238869    146.79132    290.34797 
    2060   0.96293837     104.2088    296.09365 
    2070   0.96343212    229.76913     295.1656 
    2080   0.96384088    429.99577    290.26641 
    2090   0.96412034    303.51007    294.96025 
    2100   0.96430313    95.011559    300.49273 
    2110   0.96444806    34.572144    302.06336 
    2120   0.96457783    12.429829     304.9203 
    2130   0.96469821     49.90517    308.99693 
    2140   0.96479264    370.17614    299.34664 
    2150    0.9647798    633.45793    292.50195 
    2160   0.96458772    694.70906    293.51841 
    2170   0.96420283     611.2009    294.72495 
    2180   0.96365648    393.38641    296.95673 
    2190   0.96301695    65.113082    301.83793 
    2200   0.96237582   -146.39258    301.49952 
    2210   0.96179794   -283.57885    304.29013 
    2220   0.96131384   -159.88648    301.14855 
    2230   0.96089164   -4.0966882     298.2609 
    2240   0.96048761   -15.320416      298.942 
    2250    0.9601053   -181.95168    298.77467 
    2260   0.95978854   -356.24225     301.1509 
    2270   0.95958327   -444.82173     304.0622 
    2280   0.95951019   -420.47497    304.73397 
    2290   0.95955839   -247.37238    298.63849 
    2300   0.95968308   -219.44842    301.47062 
    2310   0.95986269   -70.368759    299.20834 
    2320   0.96005792    95.480736    294.76985 
    2330   0.96022263    129.86431    295.74647 
    2340   0.96034558    111.22244     298.2814 
    2350   0.96042893     208.4928    296.36202 
    2360   0.96045096    275.87373    290.76958 
    2370    0.9603968    178.58042    291.54839 
    2380   0.96029106    77.361829    296.03369 
    2390   0.96015992    149.63518    296.73514 
    2400   0.95998979    193.58033    300.50569 
    2410   0.95976738    190.94283     303.0342 
    2420   0.95949562    135.57178    305.89869 
    2430   0.95918858    148.35393    305.51067 
    2440   0.95884055    341.97828    293.92201 
    2450   0.95841022     314.3154    290.30646 
    2460   0.95790207    123.27488    294.09058 
    2470   0.95736629    17.388624    293.01982 
    2480   0.95684081   -157.52328    295.11563 
    2490   0.95637201   -285.77537    298.63364 
    2500   0.95599624   -319.36063    301.64077 
    2510   0.95571784   -160.11693    296.32485 
    2520   0.95549651   -115.80223    300.36683 
    2530   0.95530975    9.1436446    299.80566 
    2540   0.95512159     242.4341    292.75656 
    2550   0.95487323    271.68777    291.64457 
    2560   0.95455442    169.06119    288.07255 
    2570   0.95420277   -235.19626    299.79379 
    2580   0.95391801   -386.49877    307.70553 
    2590   0.95374231   -129.57965    295.51762 
    2600   0.95361837   -128.21115    299.14402 
    2610   0.95353179    -116.3041    298.35416 
    2620   0.95348312    -159.9872    299.18874 
    2630    0.9534797   -136.15682    302.94366 
    2640   0.95350936    140.61193      294.575 
    2650   0.95349919    392.64458    286.99957 
    2660    0.9533853    249.82222    295.22676 
    2670   0.95319946     34.25871    301.57649 
    2680   0.95300582   -103.13803    303.49487 
    2690   0.95283896   -20.909676    299.30577 
    2700   0.95268415   -37.352078    305.86686 
    2710   0.95253717     92.10049    301.36096 
    2720   0.95237185    91.088217    299.94051 
    2730   0.95218328    61.528183     301.3461 
    2740   0.95197729    127.60475    299.51829 
    2750   0.95173578    201.29177    296.12081 
    2760   0.95144382    89.907345    298.18682 
    2770   0.95113475   -216.34697     304.7365 
    2780    0.9508892    -380.6677    300.88104 
    2790   0.95076188   -536.49567     301.9208 
    2800   0.95078784   -493.56007    300.48258 
    2810   0.95095633    -344.8147    296.32486 
    2820   0.95122237   -172.20555    296.41863 
    2830   0.95153354    45.374979    293.33183 
    2840   0.95183304    41.451756    293.02118 
    2850   0.95212254   -164.30593    297.98643 
    2860   0.95245311   -267.75539    301.09296 
    2870   0.95285671    -272.1531    301.58121 
    2880   0.95333142   -113.31388    295.61915 
    2890   0.95383707    37.236789    292.67753 
    2900   0.95432848    128.50775    291.99831 
    2910   0.95477992    125.78349     293.3107 
    2920   0.95518992    112.32468    293.23808 
    2930   0.95556285    107.11871    291.50606 
    2940   0.95590448   -29.405105    299.37016 
    2950   0.95624389    55.456602    299.27443 
    2960   0.95656379    216.83411    295.13469 
    2970   0.95681818    327.80446    289.37319 
    2980   0.95698434    95.025874    298.73244 
    2990   0.95711157    111.06015    299.39024 
    3000   0.95720461     275.2404     297.0972 
    3010   0.95721745    389.05699    293.47065 
    3020   0.95711966    381.86564    293.37898 
    3030   0.95690908    386.87564    292.00655 
    3040   0.95658947    316.67522    294.60768 
    3050   0.95617875    197.56214     300.3006 
    3060   0.95571383     15.34327    305.61731 
    3070   0.95524624   -139.22871    309.36753 
    3080   0.95481696   -86.252631    306.91088 
    3090    0.9544123    94.832818    303.82385 
    3100    0.9539833    234.23704    302.13862 
    3110   0.95349225    188.60194    301.13116 
    3120   0.95295123    38.541014    302.85883 
    3130   0.95239887   -49.196917    303.74601 
    3140   0.95186338   -148.30748    306.11447 
    3150   0.95137327   -189.82987    303.95167 
    3160   0.95094105   -191.28604    300.54087 
    3170   0.95056619   -154.51884    294.78381 
    3180   0.95024554   -329.59748    298.83971 
    3190   0.95001634   -325.08267    293.55128 
    3200   0.94988625   -316.55474    291.26653 
    3210   0.94984558    -209.9689    290.28092 
    3220   0.94986829   -163.24383    293.19885 
    3230   0.94993874   -163.27251    296.68472 
    3240   0.95005781   -168.75932    296.65952 
    3250   0.95022229    10.579006    286.30685 
    3260   0.95039321   -42.826754    292.91348 
    3270    0.9505722    -27.98611     298.4805 
    3280   0.95075451    155.24798     298.2158 
    3290   0.95089011    359.33981     292.4017 
    3300   0.95092587    332.52004    294.34294 
    3310   0.95086622    142.06363     304.9175 
    3320   0.95075703    207.24386    294.77867 
    3330   0.95060028   -76.060543    300.97573 
    3340   0.95046027   -244.58651    305.45034 
    3350   0.95038589   -165.38057    303.65214 
    3360   0.95036078   -70.393729    299.07877 
    3370   0.95036177   -116.97358    295.32297 
    3380   0.95040296   -340.02546    302.96243 
    3390   0.95053951   -412.93096     304.2311 
    3400   0.95079922   -413.38387    302.39612 
    3410   0.95118528     -482.259    303.92491 
    3420   0.95171455   -491.83926    306.75661 
    3430   0.95238127   -128.98674    297.51736 
    3440    0.9530954    97.716159    295.60861 
    3450   0.95378906    83.281137    300.89314 
    3460   0.95445412    260.48248    300.53988 
    3470   0.95504454    465.66558    299.92412 
    3480   0.95550266    553.41928    292.68772 
    3490   0.95580777    368.77189    295.58872 
    3500    0.9560005    271.94758    297.47215 
    3510   0.95611424    192.88261    297.81634 
    3520   0.95616964    190.56593    293.44468 
    3530    0.9561709    168.46016    289.57726 
    3540   0.95612635   -10.574728    290.99895 
    3550    0.9560842   -171.91649    293.49922 
    3560   0.95608873   -156.87157    293.60343 
    3570    0.9561401   -125.97028    300.23674 
    3580   0.95622209     95.55642    298.20449 
    3590   0.95628059    211.04976    293.70922 
    3600   0.95628144    159.69828    294.52741 
    3610   0.95623343    157.12166    291.86948 
    3620    0.9561429    6.9237687    298.32491 
    3630   0.95604539   -67.267996     299.1451 
    3640    0.9559679   -113.70619     296.9072 
    3650   0.95592338   -105.75042     300.3496 
    3660   0.95590187    161.95196    296.63602 
    3670   0.95583457    359.18609    293.53963 
    3680   0.95566657    272.27243    295.02109 
    3690   0.95541765    80.915935    298.80465 
    3700   0.95513599    84.642627    294.93421 
    3710   0.95482894    44.651166    296.63226 
    3720   0.95450726   -85.517871    302.59703 
    3730   0.95420396   -124.34718    303.24413 
    3740   0.95393119    -64.50138    300.14646 
    3750   0.95367766   -131.76275    305.79306 
    3760   0.95345453   -103.84242    305.48877 
    3770   0.95326315   -126.74879    302.20067 
    3780   0.95310561   -125.71364     301.3949 
    3790   0.95298397   -159.82551    298.76953 
    3800   0.95291335   -378.98736    302.18079 
    3810   0.95294825    -382.4599    299.20897 
    3820   0.95309601   -296.02928    303.64169 
    3830   0.95333134   -148.18916    301.49631 
    3840   0.95362118   -157.23737    301.24611 
    3850    0.9539612   -130.23874    302.15938 
    3860   0.95434363   -13.500182    299.47477 
    3870   0.95473745    97.001786    298.42686 
    3880   0.95510878    243.27877    294.58773 
    3890   0.95541608    348.27473    292.35214 
    3900   0.95563076    261.12985     293.9147 
    3910   0.95577208    128.15653    293.55207 
    3920   0.95587619    66.555897     292.5398 
    3930   0.95596159    24.262522    293.30891 
    3940   0.95604097   -4.6732625    295.71054 
    3950   0.95612041    70.771272    291.40483 
    3960   0.95618284    125.74868    285.43698 
    3970   0.95621466    11.272284    292.80245 
    3980   0.95623332    159.30416    292.98655 
    3990   0.95621555     8.920468    301.86066 
    4000   0.95618965   -64.357994    302.19297 
    4010   0.95618329   -83.962354    302.63415 
    4020   0.95619928   0.34983887    297.74878 
    4030    0.9562196    14.559943    297.86465 
    4040   0.95623884   -81.623169    306.53001 
    4050   0.95627426    105.82466    303.67961 
    4060   0.95627923    347.40574    301.18234 
    4070   0.95618421       424.42    298.65122 
    4080   0.95596794    176.97161    305.44084 
    4090   0.95568544    100.87438    300.44213 
    4100   0.95536811    32.072824    297.49458 
    4110   0.95503017    7.7596412    300.94386 
    4120   0.95467302    246.25939    288.22123 
    4130   0.95424539    106.12792    288.57311 
    4140   0.95377631   -185.37733    293.70504 
    4150   0.95334821   -463.77617    301.74018 
    4160    0.9530405   -566.19194    304.87104 
    4170   0.95288967   -455.92621    299.80907 
    4180   0.95287359   -393.53294    301.31225 
    4190   0.95297467   -335.69766    300.06853 
    4200   0.95317949   -280.45821    302.46868 
    4210   0.95347246   -200.10839    302.17559 
    4220   0.95383996   -303.70196    305.79577 
    4230   0.95430893   -358.94705    303.29725 
    4240    0.9548987   -243.93648    295.94778 
    4250   0.95557797   -41.952189     293.1763 
    4260   0.95629324    99.944966    292.22144 
    4270   0.95700253    207.40513     288.5675 
    4280   0.95767601    226.42849    288.39301 
    4290   0.95830468    144.61365    294.71898 
    4300   0.95890155    252.99691    291.48989 
    4310   0.95944362    301.93941    296.88529 
    4320    0.9599078    455.77217    289.91044 
    4330   0.96026342    256.27983    297.35647 
    4340    0.9605475    145.86917    303.65976 
    4350   0.96079425    121.95278    306.07933 
    4360    0.9610102    175.26208    304.89664 
    4370   0.96117697    437.20626    292.58694 
    4380   0.96122587     520.3111    295.36078 
    4390     0.961116    639.59604    292.19528 
    4400   0.96082047    440.96587    299.54193 
    4410   0.96037946     253.0884    303.58015 
    4420   0.95984649    137.66392    301.13334 
    4430   0.95925804   -101.89225     308.5531 
    4440    0.9586692   -31.984418    299.95621 
    4450     0.958079   -137.05249    299.31387 
    4460   0.95750851   -227.47928    299.97357 
    4470   0.95698454   -224.78951    301.46296 
    4480   0.95650786   -134.68968    298.00613 
    4490   0.95605813   -91.225545    295.16898 
    4500   0.95562382   -175.98994    293.40682 
    4510   0.95523407   -467.51641    296.35266 
    4520   0.95496869   -702.04322    299.33475 
    4530   0.95490157   -796.96948     303.2752 
    4540   0.95506533   -658.26652    296.72679 
    4550   0.95543655   -545.96316    294.61663 
    4560   0.95598378   -386.17921    297.73924 
    4570   0.95666277   -118.85282      298.859 
    4580    0.9574032    91.428671    299.69032 
    4590   0.95814546    199.81399    296.26874 
    4600   0.95886105    116.12022     298.9053 
    4610    0.9595672    13.834809    302.06298 
    4620   0.96029176    32.063313    303.50075 
    4630   0.96102498    297.21593    298.81952 
    4640   0.96169512    555.63081    294.15785 
    4650    0.9622281    565.56157    293.21779 
    4660   0.96261637    318.54314    296.24903 
    4670     0.962922    92.246734    298.13665 
    4680   0.96320428    143.91574    297.22738 
    4690    0.9634493    352.95501    293.73723 
    4700   0.96360078    421.04777    291.79777 
    4710   0.96363639    271.63713    293.04435 
    4720   0.96359332    59.473981    296.70589 
    4730   0.96352364     75.01592    295.43763 
    4740   0.96342688       214.62     289.9259 
    4750   0.96326986    140.65965    293.41547 
    4760   0.96306328    50.833759    299.03283 
    4770   0.96282984    64.731244    299.38458 
    4780   0.96257111    5.0047599    301.53309 
    4790   0.96229866     31.92184    300.54756 
    4800   0.96200727     59.23251    298.32921 
    4810   0.96168912   -7.7183059    297.95171 
    4820   0.96136272   -137.21869    301.58868 
    4830   0.96106128   -185.34985    305.29879 
    4840   0.96080012   -125.55948    305.53891 
    4850   0.96056495   -7.6357861     301.9301 
    4860   0.96032355    83.527335    299.69151 
    4870   0.96004701    208.23634    291.07238 
    4880   0.95970278    124.74415    292.73922 
    4890   0.95930686  -0.16410239    295.46177 
    4900   0.95889477   -102.56949    295.17699 
    4910   0.95849809   -245.87271    299.33837 
    4920   0.95815568   -341.08601    301.09723 
    4930   0.95790118   -411.47074    298.70438 
    4940   0.95775899   -419.58644    296.84341 
    4950   0.95773565   -331.87155    297.93549 
    4960   0.95781086   -202.26599    297.99074 
    4970   0.95795378   -175.33705    301.47602 
    4980   0.95815162   -8.8332182    299.25281 
    4990   0.95836052     179.7201    299.03697 
    5000   0.95852977    161.57466    303.08843 
Loop time of 30.9395 on 6 procs for 5000 steps with 3000 atoms

Performance: 13.963 ns/day, 1.719 hours/ns, 161.606 timesteps/s
99.4% CPU use with 6 MPI tasks x 1 OpenMP threads

MPI task timing breakdown:
Section |  min time  |  avg time  |  max time  |%varavg| %total
---------------------------------------------------------------
Pair    | 13.653     | 15.099     | 16         |  19.4 | 48.80
Bond    | 0.0041225  | 0.0047846  | 0.006537   |   1.2 |  0.02
Kspace  | 6.3116     | 7.2067     | 8.6403     |  27.8 | 23.29
Neigh   | 1.3127     | 1.3138     | 1.3147     |   0.1 |  4.25
Comm    | 1.3375     | 1.4877     | 1.6589     |  11.4 |  4.81
Output  | 0.013515   | 0.015823   | 0.026419   |   3.8 |  0.05
Modify  | 5.1063     | 5.4778     | 5.7893     |  12.8 | 17.70
Other   |            | 0.3341     |            |       |  1.08

Nlocal:    500 ave 510 max 492 min
Histogram: 1 1 0 1 0 1 1 0 0 1
Nghost:    6776.67 ave 6792 max 6756 min
Histogram: 1 0 0 0 2 0 1 0 0 2
Neighs:    173612 ave 179029 max 160825 min
Histogram: 1 0 0 0 1 0 0 0 1 3

Total # of neighbors = 1041672
Ave neighs/atom = 347.224
Ave special neighs/atom = 2
Neighbor list builds = 258
Dangerous builds = 8
unfix stab_iso
unfix stab_constrain

reset_timestep 0
fix stab_iso all npt temp ${Text} ${Text} $(200.0*dt) iso ${Pext} ${Pext} $(250.0*dt)
fix stab_iso all npt temp 298 ${Text} $(200.0*dt) iso ${Pext} ${Pext} $(250.0*dt)
fix stab_iso all npt temp 298 298 $(200.0*dt) iso ${Pext} ${Pext} $(250.0*dt)
fix stab_iso all npt temp 298 298 200 iso ${Pext} ${Pext} $(250.0*dt)
fix stab_iso all npt temp 298 298 200 iso 1 ${Pext} $(250.0*dt)
fix stab_iso all npt temp 298 298 200 iso 1 1 $(250.0*dt)
fix stab_iso all npt temp 298 298 200 iso 1 1 250
fix stab_constrain all rattle 1.0e-5 100 0 b 1 a 1
  0 = # of size 2 clusters
  0 = # of size 3 clusters
  0 = # of size 4 clusters
  1000 = # of frozen angles
  find clusters CPU = 0.000368118 secs

thermo_style custom step density etotal press temp
thermo_modify flush yes
    # insures the output is dumped in the file and not buffered or something
thermo ${NdumpStats}
thermo 10
dump trj all atom ${NdumpFrames} wat.lammpstrj
dump trj all atom 1000 wat.lammpstrj

run ${Nrun}
run 500000
PPPM initialization ...
  using 12-bit tables for long-range coulomb (src/kspace.cpp:332)
  G vector (1/distance) = 0.303976
  grid = 27 27 27
  stencil order = 5
  estimated absolute RMS force accuracy = 0.00320927
  estimated relative force accuracy = 9.66461e-06
  using double precision FFTW3
  3d grid and FFT values/proc = 10880 3645
Per MPI rank memory allocation (min/avg/max) = 10.85 | 11.16 | 11.33 Mbytes
Step Density TotEng Press Temp 
       0   0.95852977   -9375.0547    126.63849    303.08843 
      10   0.95845617   -9375.2765    185.64788     298.6821 
      20   0.95817817   -9375.5567    157.74942    297.59905 
      30   0.95772469   -9375.9721    -24.43197     302.6029 
      40    0.9572859   -9376.1443   -107.90602    301.58095 
      50   0.95696958   -9376.3773   -136.66753    300.63434 
      60   0.95680934   -9376.8134   -145.07518    307.84334 
      70   0.95678599   -9377.5173    73.464099    308.81547 
      80   0.95666842   -9378.6795    366.74088    299.38307 
      90   0.95615862    -9380.216    301.04044    293.91629 
     100   0.95531092   -9381.7211   -58.273071    300.52353 
     110    0.9544905   -9382.6714   -224.82651    296.79294 
     120   0.95393518   -9383.4411   -366.28787    296.37946 
     130   0.95381468   -9384.2187   -528.46497    304.17137 
     140   0.95429493   -9385.1951    -381.6557    300.46681 
     150   0.95525486   -9386.5673   -199.29569    296.06565 
     160    0.9565017   -9388.3789   -218.23556    305.37047 
     170   0.95801163   -9390.2917   -31.587761    307.62627 
     180    0.9595743   -9392.5988    384.88475    297.00311 
     190   0.96075661    -9395.056    467.97955    297.91164 
     200   0.96141158   -9397.8735    359.49938    304.12072 
     210   0.96163762   -9400.6964    300.46713    301.34439 
     220   0.96152464    -9403.865    110.35194    304.68226 
     230   0.96126004   -9407.0237   -7.3886248    305.16932 
     240   0.96099696   -9410.6596    -112.2568    307.93729 
     250   0.96083671   -9414.6151   -6.7771296    302.18056 
     260    0.9606782   -9418.9656     178.9794    291.82726 
     270   0.96032953   -9423.3622    69.678125     293.9908 
     280   0.95989484   -9427.8684     -263.764    303.93087 
     290   0.95972097   -9432.2347   -313.14216    303.30146 
     300   0.95991293   -9437.0556   -187.29308    302.15708 
     310    0.9603295    -9441.939    97.500831    294.03767 
     320    0.9606849   -9447.0744    135.10722     297.1381 
     330   0.96088813   -9452.0612    171.84139    292.50733 
     340   0.96092417   -9456.6524    9.9715877      287.721 
     350   0.96097502   -9460.9124   -372.74078    298.69813 
     360     0.961434   -9464.7869   -330.30279     299.2242 
     370   0.96233309   -9468.9015    -107.0364    296.53344 
     380   0.96344236   -9472.4965    184.20121    289.52499 
     390   0.96446015    -9476.153    250.48381    293.22071 
     400   0.96524882   -9478.9851    356.32252      286.371 
     410    0.9657143   -9481.8814    128.80108    297.17211 
     420   0.96600438   -9484.0881    244.45721    291.50733 
     430   0.96604655   -9486.2894    239.24418    290.08572 
     440   0.96579776   -9488.0333    137.06297    291.02349 
     450   0.96535878   -9489.2994   -3.8308958    291.44441 
     460   0.96487044   -9490.4006   -104.63011    291.96636 
     470   0.96446561   -9490.8912   -208.08376    294.74701 
     480   0.96426689   -9491.5202    -226.9832    302.18178 
     490   0.96429868   -9491.8549    31.778542    293.82766 
     500   0.96433442   -9492.5284    51.587964    295.59352 
     510   0.96429708   -9493.0789    92.125609    295.22949 
     520   0.96414944   -9493.5215    80.044937    293.73231 
     530   0.96389391   -9493.8916    30.369166    297.48721 
     540   0.96356066   -9494.0926     148.5186    291.00695 
     550   0.96306411   -9494.3401   -17.050276    292.91189 
     560   0.96254564   -9494.0962   -151.39822    294.57082 
     570   0.96217538   -9493.6053   -177.57664    294.83019 
     580   0.96199619   -9493.0912     -104.014    295.44869 
     590   0.96192049   -9492.5203    129.61797    288.76175 
     600   0.96172333   -9491.9543    71.661168    289.86129 
     610   0.96143388    -9490.999   -95.390934    292.48626 
     620   0.96123463    -9489.959   -174.25012    294.49084 
     630   0.96122989   -9488.7729   -174.49702    295.95855 
     640   0.96143565   -9487.5882   -124.57177    297.48566 
     650   0.96177962   -9486.5364    92.690705    296.02855 
     660   0.96202369   -9485.5246    321.63783    287.82327 
     670   0.96193128   -9484.6333    174.06303    289.08402 
     680   0.96162958   -9483.3209   -87.252239    294.91546 
     690   0.96138792   -9481.7278   -32.040995    289.54554 
     700   0.96118169   -9480.0379    68.444811    284.47181 
     710   0.96091597   -9478.2706   -101.29464    292.09369 
     720   0.96074819   -9475.8492   -212.11176    294.15136 
     730   0.96082908   -9473.5561   -247.33001    294.28319 
     740   0.96120082   -9471.2574   -134.79041    290.93045 
     750   0.96176529    -9469.002   -88.067486    290.32289 
     760   0.96246197   -9466.5924    -113.8928    297.36733 
     770   0.96329102   -9464.1072    75.374741    292.40036 
     780   0.96408129   -9461.8244    128.26245     290.1113 
     790   0.96475004   -9459.4078    76.120349    293.92058 
     800    0.9653446   -9456.9896    48.237194    300.19572 
     810   0.96587677   -9454.4813    195.08358    296.38098 
     820   0.96620762   -9452.3616    268.03292    294.43657 
     830   0.96622901   -9450.2517    269.94712    295.22526 
     840   0.96593489   -9448.1452    194.23364    295.93941 
     850   0.96539315   -9446.1448    117.32204     297.4273 
     860    0.9646731   -9444.0079    177.28577    292.24764 
     870   0.96372329   -9441.9717    129.61482     290.5976 
     880   0.96259912   -9439.9324   -136.46515    298.07017 
     890   0.96156097    -9437.407   -143.49002    291.68457 
     900   0.96068091    -9435.005   -233.37942    292.79844 
     910   0.96003825   -9432.1626   -247.09302    292.83651 
     920   0.95967235    -9429.429   -234.88314    296.17019 
     930   0.95956676   -9426.7578    -151.4012    298.23146 
     940   0.95962515    -9424.378    98.546358    290.18465 
     950     0.959601   -9422.2291    101.57187    292.37522 
     960   0.95944843    -9419.989     35.62582    296.69752 
     970    0.9592511   -9417.5569   -73.139172    298.19328 
     980   0.95912317   -9415.1921   -94.314898    295.22175 
     990   0.95911106   -9413.1029   -119.69559    294.90214 
    1000    0.9592442   -9410.8043   -172.53523    298.65543 
    1010   0.95958655   -9408.6305   -142.97044    301.27744 
    1020   0.96010726   -9406.6574     28.15776    301.33756 
    1030   0.96062332   -9405.0805    184.69417    300.84608 
    1040   0.96094815   -9403.8069    252.70345    298.34358 
    1050   0.96100695   -9402.6721    98.396213    302.78497 
    1060   0.96092726   -9401.5464    63.872911    304.15235 
    1070   0.96075844   -9400.7015    119.32871    300.76046 
    1080   0.96044565   -9400.2806    95.194971    304.59637 
    1090   0.95997486   -9399.7642    206.84083     303.3715 
    1100    0.9592354   -9399.6955    204.38955    299.07377 
    1110   0.95823182   -9399.7223   -54.547268     300.6465 
    1120   0.95722466   -9399.4485   -241.72753    301.58746 
    1130   0.95644588   -9399.0599     -285.381    298.83664 
    1140   0.95596697   -9398.7797   -232.51139    299.47354 
    1150   0.95573502   -9398.5219   -75.248559    297.35618 
    1160   0.95559163   -9398.4766    14.462881    294.90341 
    1170   0.95544012   -9398.4037   -49.875072    298.01432 
    1180   0.95532249   -9397.8933    32.948116    288.39028 
    1190   0.95521171    -9397.334   -201.02733     293.4014 
    1200   0.95530278   -9396.6875   -217.23945     298.1593 
    1210   0.95564849   -9396.1341   -4.5561934    292.81278 
    1220    0.9560434   -9395.5785    50.083603    291.40731 
    1230   0.95641087   -9394.9616    3.2829928    296.84999 
    1240   0.95676622   -9393.9918    153.23554    294.01597 
    1250    0.9569702   -9393.1683    203.46114    291.99994 
    1260   0.95696142   -9392.2261   -6.4694537     296.4818 
    1270   0.95694002   -9390.9063   -77.890853    296.01866 
    1280   0.95699895   -9389.7228   -11.618596     297.6627 
    1290   0.95707817   -9388.4357    17.233986    298.89032 
    1300   0.95715016   -9387.2607   -33.048782    296.90507 
    1310   0.95728712   -9385.9703   -209.63674    301.49443 
    1320   0.95766728   -9384.7349   -226.36049    306.13603 
    1330   0.95831695   -9383.6775     20.42988    302.59242 
    1340   0.95899172   -9383.1588    171.23858    302.46588 
    1350   0.95949157   -9382.6634    267.16692     297.8933 
    1360   0.95972476   -9382.3524    78.155568    301.35454 
    1370   0.95986443   -9381.9271   -67.009451     301.6124 
    1380   0.96008393   -9381.3092   -95.917939    295.51657 
    1390   0.96045985   -9381.0671   -325.21541    308.77737 
    1400   0.96118176   -9380.7417   -104.73149    308.30551 
    1410   0.96207826   -9381.0363    115.05484     306.6496 
    1420   0.96289391   -9381.6875    158.78099    306.89493 
    1430   0.96356181   -9382.5115    172.98249    304.79101 
    1440   0.96404934   -9383.6415    190.83372    307.04478 
    1450   0.96431968    -9385.157    241.32861    306.42539 
    1460   0.96430329   -9386.9497    296.81347    305.18254 
    1470   0.96393274   -9389.3569    262.49209    307.58845 
    1480   0.96321965   -9391.9162    249.13558    301.45987 
    1490   0.96220729   -9394.7246    32.764632    301.36639 
    1500   0.96111371   -9397.5163   -214.50276    305.02762 
    1510   0.96022994   -9400.4218   -366.27388    303.21445 
    1520   0.95974887   -9403.3345   -371.56393    296.66981 
    1530   0.95970571   -9406.6396   -382.96248    299.19712 
    1540   0.96009604   -9410.1469   -181.54962    298.73716 
    1550   0.96072454   -9414.0123    48.246451    296.13099 
    1560   0.96133945   -9418.3253    108.69317    298.10314 
    1570   0.96185096    -9422.763    66.838525    298.02362 
    1580   0.96231006    -9427.481   -74.878186    301.76526 
    1590   0.96285845   -9432.4133   -56.819895    299.45889 
    1600   0.96349912   -9437.6726    1.1383177    297.29466 
    1610   0.96416822   -9443.4112    6.0343759    304.88059 
    1620    0.9648187   -9449.2964    262.75934    300.16961 
    1630   0.96519771   -9455.3902    353.39028    294.17947 
    1640   0.96518948   -9461.5307    154.07236      297.102 
    1650   0.96499087    -9467.321   0.01639557    294.09006 
    1660   0.96479407   -9472.7395     -155.785    294.13036 
    1670   0.96476074   -9477.7086   -152.25968    292.73633 
    1680   0.96490861   -9482.3119   -119.82982    294.29532 
    1690   0.96520098   -9486.3883   -62.854383    295.40061 
    1700   0.96557349   -9490.1413    45.027744    292.99605 
    1710   0.96590423   -9493.6112    162.58693    290.70344 
    1720   0.96606752   -9496.5582    129.41749    290.97945 
    1730   0.96607949   -9499.0719    100.53093    290.02371 
    1740   0.96596433   -9500.8869    98.783467    290.49906 
    1750   0.96573005   -9502.3474    33.503137    292.72622 
    1760   0.96543885   -9503.4664    9.7382943    291.68749 
    1770   0.96512824   -9504.2778   -29.988364    293.36792 
    1780   0.96483655   -9504.8169   -66.341223    296.15311 
    1790   0.96460026   -9505.3021   -2.5728081    295.38808 
    1800   0.96435298   -9505.6182    95.660595    292.80859 
    1810    0.9639976   -9505.9123    53.801575    292.77325 
    1820   0.96356125   -9506.0137   -23.529118    292.84094 
    1830   0.96313378   -9506.0423   -77.439706     294.1709 
    1840   0.96277588   -9505.4939    -77.26208    294.24146 
    1850   0.96250873   -9505.1127   -147.03252    298.62914 
    1860   0.96237622   -9504.4924    25.121614    289.53043 
    1870   0.96224051   -9504.1907    5.8495507    292.36072 
    1880   0.96206667   -9503.5773    115.56634    288.51191 
    1890   0.96176503    -9503.004    134.19731    287.24921 
    1900   0.96129038   -9502.0611    60.310182    290.44555 
    1910   0.96071794   -9500.8723   -39.779061    289.89422 
    1920   0.96018573   -9499.2851   -297.20478    293.96752 
    1930   0.95997249   -9497.2329   -359.25752     293.0081 
    1940   0.96016733    -9495.219   -192.19153    289.86266 
    1950   0.96061915   -9493.4788   -95.363482    290.96492 
    1960   0.96120762   -9491.3816    -3.941446    288.96528 
    1970   0.96184616   -9489.3117   -19.386059    294.69757 
    1980   0.96250857   -9486.9151    123.78794     294.3433 
    1990   0.96306762   -9484.6882    133.66902    294.85112 
    2000   0.96348087   -9482.3968    143.44072    293.24797 
    2010   0.96373657   -9480.0132    209.00899    288.78812 
    2020   0.96376942   -9477.5281    62.271405    294.50786 
    2030   0.96373337   -9474.8454   -180.26445    302.73937 
    2040   0.96387015   -9471.9726   -79.348051    299.54809 
    2050    0.9641213   -9469.4537     44.57211    295.89458 
    2060   0.96434074    -9466.954     71.81707    293.90475 
    2070   0.96449399   -9464.4048    22.439073    293.42182 
    2080   0.96462769   -9461.7143   -30.448844    294.01156 
    2090   0.96481651   -9458.8004   -178.77692    299.22094 
    2100    0.9652162   -9455.9728   -245.07756    302.69681 
    2110   0.96591947   -9453.2256   -197.34888    305.63352 
    2120   0.96687356   -9450.8543    2.2935525    304.63316 
    2130   0.96786498   -9448.9391    243.96655    302.38092 
    2140   0.96860148    -9447.306     435.0162    299.51305 
    2150   0.96886118    -9445.987    370.10152      305.331 
    2160   0.96865582    -9444.713    422.81759    301.33126 
    2170   0.96795858   -9443.7519    302.83904    294.79758 
    2180   0.96689693   -9442.8339   -59.218319     300.7583 
    2190   0.96584106   -9441.4698    -203.8653     300.3095 
    2200   0.96498807   -9439.9212   -214.46449    296.94896 
    2210   0.96437025   -9438.3204   -198.99512     294.6795 
    2220   0.96399455   -9436.7485   -356.24199    300.79688 
    2230   0.96403026   -9434.9689   -473.90107    307.01783 
    2240   0.96459672   -9433.5712   -184.95889    301.83634 
    2250   0.96540431   -9432.6353    214.27973    294.03778 
    2260   0.96600644   -9431.7991    357.14067    295.58842 
    2270   0.96619725   -9430.7838    390.27285    294.11166 
    2280   0.96594628    -9429.825    212.21408     293.9098 
    2290   0.96543438   -9428.6721   -35.996559    297.99521 
    2300   0.96494054   -9427.1963   -190.42771    301.11516 
    2310   0.96464224   -9425.5489   -135.23465    295.72808 
    2320    0.9645091   -9424.0522   -103.04869    296.32821 
    2330   0.96449827   -9422.5151   -124.91162     300.7078 
    2340   0.96462146   -9421.0945   -41.264512    302.72426 
    2350   0.96478136   -9419.7149    152.42512     298.1021 
    2360   0.96480984   -9418.4197   -4.8868044    300.49323 
    2370   0.96484974   -9416.9934   -221.22669    306.11347 
    2380   0.96513156   -9415.7669   -190.21538    310.57197 
    2390   0.96562466   -9414.8131    92.836488    301.92363 
    2400   0.96606688   -9414.0714    92.690464    298.33785 
    2410   0.96642376    -9413.559   -34.313293    306.94733 
    2420   0.96678656   -9412.9889    239.14758    298.42052 
    2430   0.96690367   -9412.7114    323.43623     295.2982 
    2440   0.96664003   -9412.5466    248.59589    297.66731 
    2450   0.96606387   -9412.2268    119.64734    300.83408 
    2460   0.96532736   -9411.6653   -41.033925    295.89766 
    2470   0.96462207   -9411.0645   -197.40812    297.24301 
    2480   0.96409633   -9410.2745   -56.823038    295.71772 
    2490   0.96361446   -9409.5065    137.88678    292.39357 
    2500    0.9629772   -9408.7117    67.317688    293.42343 
    2510   0.96224553   -9407.3967    -101.1121    287.85356 
    2520   0.96163544     -9405.66   -400.21613    294.10934 
    2530   0.96144444   -9403.2115   -383.45199    297.14997 
    2540   0.96169597   -9400.8161   -194.70841    294.78191 
    2550   0.96220314   -9398.1734   -104.28168    295.15394 
    2560     0.962867   -9395.5173   -116.77476    303.17308 
    2570   0.96366762   -9392.5312    81.873347    302.70861 
    2580   0.96441915   -9389.6086    195.69554    303.16307 
    2590   0.96496797   -9386.5819    222.65429    305.22194 
    2600   0.96526577   -9383.5058    238.89365    300.36785 
    2610   0.96530896   -9380.4844    77.941834    300.96634 
    2620   0.96524154   -9377.0961     67.67178    301.32949 
    2630    0.9650844   -9373.5031    110.42354    303.68939 
    2640   0.96479654   -9369.9209    22.085096    310.07321 
    2650   0.96445826    -9366.426    -14.92881    310.31906 
    2660   0.96412058   -9363.0039   -10.038196    308.23517 
    2670   0.96378529   -9359.6282    11.673259    302.76376 
    2680   0.96344018   -9356.6503   -74.073672    304.95587 
    2690    0.9631536   -9353.5088   -67.042413    306.80449 
    2700   0.96293811   -9350.4242   -35.867697    302.44888 
    2710   0.96277869   -9347.4585   -144.00663    306.03808 
    2720   0.96276919   -9344.4847   -130.46516    307.75966 
    2730   0.96290241   -9341.7576    37.076592    304.55103 
    2740    0.9630048   -9339.4083    139.00851    306.87011 
    2750   0.96294113   -9337.3109    205.76204    306.36783 
    2760   0.96264149   -9335.4552    133.65712    307.86193 
    2770   0.96216858   -9333.7252    36.406912    306.90872 
    2780   0.96163731   -9332.0796    -39.14262    305.68406 
    2790    0.9611193   -9330.6295    6.9010396    301.40716 
    2800   0.96060499   -9329.2776   -175.55603     307.3804 
    2810   0.96026665    -9327.911   -272.35239    312.84442 
    2820   0.96022545    -9327.014   -161.46498    308.82318 
    2830   0.96038868   -9326.5791   -71.605762    307.32389 
    2840   0.96063776   -9326.3957    94.485143    302.21491 
    2850   0.96080523   -9326.4993     78.28438     305.6627 
    2860   0.96088163   -9326.6506    38.775091    302.85297 
    2870   0.96092904   -9327.1504   -78.827945    304.79295 
    2880   0.96104272   -9327.6947    35.315145    303.26659 
    2890   0.96110925   -9328.4775    237.25139    295.49311 
    2900   0.96094228   -9329.6827   -10.074925    305.76467 
    2910   0.96075053   -9330.5848   -110.11607    305.60592 
    2920   0.96069475   -9331.8251    -179.4278    307.59881 
    2930   0.96083446   -9333.6506   -122.98938    314.27347 
    2940   0.96108984   -9335.9373    249.04135     304.9647 
    2950   0.96108093   -9338.9229    417.02537    298.23316 
    2960   0.96060837   -9342.2792    193.73455    301.27745 
    2970   0.95988589   -9345.7167   -101.43282    306.58574 
    2980   0.95924135   -9349.3133   -241.93676    307.74003 
    2990    0.9588548   -9353.2278   -243.08278    305.19411 
    3000   0.95873983   -9357.4802   -85.597615    298.85711 
    3010   0.95872883   -9362.3231    42.747315    300.95066 
    3020   0.95865116   -9367.2295    221.59403    296.46873 
    3030   0.95833021   -9372.3542    192.49688    294.08682 
    3040   0.95777835   -9377.4371    28.008826    295.02888 
    3050   0.95716891   -9382.2064   -104.74267    292.45581 
    3060   0.95667518   -9386.7266   -321.39598    298.66729 
    3070   0.95653455   -9390.8723    -402.2885    298.92662 
    3080   0.95688769   -9394.9787   -485.85478    299.69451 
    3090   0.95782006   -9399.1751   -368.54053    298.84877 
    3100   0.95921655   -9403.3845   -43.436068    293.55281 
    3110   0.96072922   -9407.6515    157.71315    297.56465 
    3120   0.96208429   -9411.7081    384.11355    298.25743 
    3130   0.96302198   -9415.4117    541.85795    292.23624 
    3140   0.96337542   -9418.8332    327.58309    292.21438 
    3150   0.96335487   -9421.8673   -14.676075    295.64282 
    3160   0.96332722     -9424.38   -139.82045    295.84591 
    3170    0.9634499   -9426.7253   -83.352951    294.85311 
    3180   0.96367377   -9428.7889    10.516696    292.41347 
    3190   0.96390142   -9430.6043    17.021108    290.30235 
    3200   0.96413354   -9432.2008   -119.24999    294.43645 
    3210   0.96450101    -9433.409   -140.21198    299.55038 
    3220   0.96502617   -9434.6982    45.017586    298.09124 
    3230   0.96552531    -9436.187    124.80441    304.73783 
    3240    0.9658582   -9437.5228    391.92599    296.88382 
    3250   0.96575876   -9439.1564     455.0377    292.08004 
    3260   0.96511986   -9440.7717    324.27795    291.10766 
    3270   0.96407761    -9441.952    110.47878    290.33641 
    3280   0.96287595   -9442.6461   -152.25023    292.34222 
    3290   0.96181496   -9442.8513   -335.19338    294.48468 
    3300   0.96111017   -9442.8592   -346.70572    297.59038 
    3310   0.96078639   -9442.7949   -220.46049    297.99122 
    3320   0.96071304   -9442.7542   -50.966743    293.92859 
    3330   0.96072316   -9442.8942   -87.333545    295.03494 
    3340    0.9608407   -9442.6556   -152.26948    292.79655 
    3350   0.96115478   -9442.3733   -228.17504    297.39221 
    3360   0.96172333   -9442.1113   -63.909367    297.68459 
    3370   0.96240047   -9442.0558    34.427377    301.09414 
    3380    0.9630401   -9442.0232    221.94631     297.7107 
    3390   0.96343906   -9442.1639    405.77631     291.7833 
    3400   0.96339328   -9442.2642    286.07471    296.05296 
    3410    0.9630017   -9442.2131     130.8048    296.62104 
    3420   0.96243321   -9442.0549    17.058857    299.92405 
    3430   0.96180842   -9441.7678   -27.301236    303.25861 
    3440   0.96117362   -9441.3285    127.87672    288.45176 
    3450   0.96041337   -9441.2894   -43.087227    292.23782 
    3460   0.95964338   -9440.7192   -46.774109    296.07392 
    3470   0.95889274   -9440.0834    55.115141    291.62339 
    3480   0.95807334   -9439.4295   -19.786072    292.87154 
    3490   0.95723604   -9438.4617   -41.633533    292.61943 
    3500   0.95643929   -9437.3582   -209.97954    294.99767 
    3510   0.95586685   -9435.7218    -402.2071    296.34213 
    3520   0.95574856   -9434.1016     -446.155    300.33884 
    3530   0.95613361   -9432.5062   -196.73845    292.51281 
    3540   0.95680846   -9431.2113   -134.31176    292.87663 
    3550   0.95767134    -9429.562   -101.43183    294.51273 
    3560   0.95867845    -9427.913    40.172136    296.26054 
    3570    0.9596594   -9426.2459    286.53009     296.5616 
    3580   0.96034184   -9424.6305    375.15989    294.55399 
    3590   0.96063229   -9422.8807    119.68646    299.95747 
    3600   0.96077317   -9420.8451   -42.587744    299.90319 
    3610   0.96096954   -9418.6752    -130.6313    299.25267 
    3620   0.96132391   -9416.4785   -98.249931    298.97182 
    3630   0.96179572   -9414.4036    55.694042    300.55057 
    3640   0.96221712    -9412.331    174.28978    301.51629 
    3650   0.96247061   -9410.3994    52.646274    304.46381 
    3660   0.96265854   -9408.4143    2.3487343    303.70118 
    3670   0.96283837   -9406.6609     59.83545    304.40247 
    3680   0.96294626   -9405.0491    162.66199    306.44597 
    3690   0.96284856   -9403.6183    386.75691     299.2376 
    3700   0.96229834   -9402.4353    463.53856    295.90449 
    3710   0.96119443   -9401.6558    212.87628    303.43677 
    3720   0.95977732   -9400.4814   -5.4332003    300.30959 
    3730   0.95832689   -9398.7297   -200.74969    295.33122 
    3740   0.95707669   -9396.6623   -345.40688    299.12421 
    3750   0.95618674   -9394.2414   -297.88263    297.16302 
    3760    0.9556491   -9391.4981   -340.20747    300.76692 
    3770   0.95549002   -9388.6837   -282.74845    301.88199 
    3780    0.9556785    -9385.989   -283.38902    309.55282 
    3790   0.95617379    -9383.296    48.874499    304.47385 
    3800   0.95663365   -9380.9783    399.61591    298.43384 
    3810   0.95665757   -9378.6006     428.0349    295.00365 
    3820    0.9562013   -9375.9148    136.06759    293.06363 
    3830   0.95556552   -9372.3443   -171.23245    297.03232 
    3840   0.95509987   -9367.9892   -306.39318     300.6315 
    3850   0.95496568   -9363.1271   -201.30051    297.22354 
    3860   0.95508577   -9358.3969   -120.02635     300.6947 
    3870   0.95532729   -9353.1809    158.47779    297.99855 
    3880   0.95540757   -9347.9781    238.13281    299.02546 
    3890   0.95522827   -9342.4548     35.30579    303.88507 
    3900   0.95497469    -9336.559    16.389131    299.82933 
    3910   0.95469901   -9330.7755   -1.8434529    304.28124 
    3920   0.95439472   -9324.8844    125.94671    301.60534 
    3930   0.95395489   -9319.4537    91.371807     302.4879 
    3940   0.95340077   -9313.9925   -58.178767    305.08161 
    3950   0.95290036   -9308.9353   -225.33435    310.86896 
    3960   0.95262504   -9303.8818    -154.7412    302.68999 
    3970   0.95256901    -9299.529   -303.78476    310.51748 
    3980   0.95282723   -9295.5259   -78.024553     313.8212 
    3990   0.95317589   -9292.4167       321.16    305.53378 
    4000   0.95319623   -9290.0407    311.45307    303.34799 
    4010   0.95284712   -9287.9067    201.99505    301.36606 
    4020   0.95224206   -9286.0727    127.03281    300.63354 
    4030   0.95146868   -9284.3329    3.5077083    301.80826 
    4040   0.95067273   -9282.7222    -188.8287    305.46996 
    4050   0.95007002   -9280.8831   -288.82967    301.52747 
    4060   0.94982008   -9279.4904   -472.82777    306.42066 
    4070   0.95010538   -9278.0845   -426.85773    307.99138 
    4080   0.95090458   -9277.4532   -219.30408     310.5656 
    4090   0.95196988    -9277.254    188.66436    305.38367 
    4100   0.95286078   -9277.2923    417.37962    300.18675 
    4110   0.95331569   -9277.7409    254.01384    305.90063 
    4120   0.95346913   -9278.1444     70.72698      307.903 
    4130   0.95352863   -9278.9517    41.554789     306.8771 
    4140   0.95351715    -9279.726    211.64208    299.42819 
    4150   0.95330176    -9280.932   -24.147379    310.12862 
    4160   0.95307968   -9282.0124   -147.06117    312.51988 
    4170   0.95301288    -9283.497   -67.548425    307.44373 
    4180   0.95303208   -9285.3831    5.7103054    305.74774 
    4190   0.95305223   -9287.4419    3.3533693    305.63845 
    4200   0.95306693   -9289.7955    -21.11202    309.48189 
    4210   0.95309669   -9292.3303    32.883716    308.81231 
    4220   0.95309567   -9295.2542    49.166916    305.53624 
    4230    0.9530474   -9298.2645   -18.223389     302.5386 
    4240   0.95303583   -9301.4728   -249.54235    308.90279 
    4250   0.95329896   -9304.7579   -291.11258    312.28451 
    4260    0.9538942   -9308.3694   -16.013043    306.86565 
    4270   0.95454438   -9312.2721    217.65061    302.20608 
    4280   0.95497574   -9316.2899     233.0334    304.24145 
    4290   0.95514424   -9320.2989    142.70798    306.62111 
    4300   0.95513906   -9324.3676    84.872521    305.09324 
    4310   0.95502651   -9328.3219    114.25687    302.04016 
    4320   0.95476773   -9332.1885    147.05133    302.34662 
    4330   0.95432824   -9336.0571    120.17528    299.64237 
    4340     0.953735   -9339.7317    26.226685     300.9781 
    4350   0.95306366    -9343.168    94.175053    301.06795 
    4360   0.95225418   -9346.4599    172.93244    296.08987 
    4370   0.95124024   -9349.5092   -30.736551    298.45338 
    4380   0.95022439   -9352.1033   -245.97555    300.45926 
    4390   0.94945724   -9354.2169   -311.91241    298.68974 
    4400   0.94904124   -9356.1179    -330.1761    297.40061 
    4410   0.94902506   -9357.8375   -453.09983     302.3123 
    4420   0.94953271   -9359.7265   -403.90786    307.65516 
    4430   0.95051476   -9361.7951   -38.763708    300.48448 
    4440   0.95160732   -9363.9247    180.30514      296.461 
    4450   0.95254474   -9365.7859    192.10622    297.13472 
    4460   0.95329267   -9367.8195    82.827282    302.92009 
    4470   0.95394561   -9369.6442    135.39368    302.43417 
    4480   0.95445069   -9371.5213    255.20351     298.5342 
    4490   0.95468762   -9373.3406    168.75474    297.47484 
    4500   0.95473697   -9375.0962   -27.027117    302.07611 
    4510   0.95479232   -9376.6777  -0.73503865    305.00865 
    4520   0.95483638   -9378.3731    186.05671    299.85131 
    4530   0.95467471    -9380.188    216.58861    295.27084 
    4540   0.95426675   -9381.7669    37.247489    292.10011 
    4550   0.95381024    -9382.954   -222.31676     294.0073 
    4560   0.95358394   -9383.6603   -263.19926    291.74393 
    4570   0.95367931   -9384.4143   -328.33202    299.17851 
    4580   0.95415735   -9385.1021   -284.96174    302.37433 
    4590   0.95499711   -9385.9052   -183.32144    302.05339 
    4600   0.95608805   -9386.9749   -60.039687     302.4728 
    4610   0.95729706   -9388.3128    38.710057      302.182 
    4620   0.95850215   -9389.7697    136.25427    301.41713 
    4630   0.95958259   -9391.1916    270.42864    299.95798 
    4640   0.96037933   -9392.9297    304.61354    306.01961 
    4650   0.96081485   -9394.6279    426.02312     300.9961 
    4660   0.96077664   -9396.5951     329.6284     301.2094 
    4670   0.96034775   -9398.6801    90.205785    302.84076 
    4680   0.95977413   -9400.6273    25.800183    299.87961 
    4690   0.95914647   -9402.6378    7.7241343    300.43592 
    4700   0.95849875    -9404.605   -107.82154    299.74181 
    4710   0.95797212   -9406.2293   -287.80507    299.54894 
    4720   0.95775972   -9408.0558   -269.93664    300.32163 
    4730   0.95783972   -9409.6874    45.952066    290.56396 
    4740    0.9579223   -9411.6932   -54.393611    296.81581 
    4750   0.95806135   -9413.5616   -175.69361    302.44537 
    4760   0.95837507   -9415.1549    75.129862    292.60246 
    4770   0.95864459   -9417.1503    114.10436    296.70504 
    4780   0.95876797   -9418.9966    184.11959    297.76175 
    4790   0.95868088   -9420.5724    205.01827     293.1265 
    4800    0.9583809   -9422.2676   -78.345061    300.30309 
    4810   0.95813851    -9423.767   -181.19489    301.12294 
    4820     0.958089   -9425.5042   -109.97789    299.21295 
    4830   0.95817334   -9427.2661   -53.922162    297.31596 
    4840   0.95833238   -9428.8308   -27.243233    292.70678 
    4850   0.95855026   -9430.3937   -155.09854     298.7297 
    4860   0.95893265   -9431.8507    -75.51231    301.50289 
    4870   0.95940526   -9433.6041    165.21956    295.98293 
    4880   0.95973044   -9435.5772    136.39791    298.35728 
    4890   0.95988574   -9437.2607    194.02765    295.49968 
    4900    0.9598143   -9439.0886    246.73984    295.00053 
    4910   0.95943509   -9440.9519    284.24156    293.12521 
    4920     0.958723   -9442.6284    128.01015    289.47148 
    4930   0.95784821   -9443.9312   -161.26402    290.93054 
    4940    0.9571264   -9444.7992   -322.22172    295.76479 
    4950   0.95674262   -9445.5388   -229.88419    296.48884 
    4960   0.95661771   -9446.3055   -66.381705    290.17299 
    4970   0.95660041   -9447.1271   -105.06491    291.50057 
    4980    0.9566902   -9447.5262    19.880913    285.03125 
    4990   0.95679308   -9448.0616   -82.657453    290.59328 
    5000   0.95698201   -9448.0345   -116.08138    290.80638 
    5010   0.95731345   -9447.6643   -92.990217    288.75716 
    5020   0.95778333   -9447.2336   -187.58418     296.3401 
    5030   0.95846882    -9446.593   -65.817482    295.94953 
    5040   0.95924338   -9445.8006    245.31394    285.94058 
    5050   0.95977422   -9445.1447    377.49437    285.27796 
    5060   0.95987528   -9443.8895    331.86694     286.8077 
    5070   0.95959388   -9442.2242      84.1667    289.53774 
    5080   0.95920127   -9439.7506   -169.85719    290.85778 
    5090   0.95899418    -9436.673   -306.16378    291.74276 
    5100   0.95914064   -9433.0723   -255.83395    289.80535 
    5110   0.95959321   -9429.1485   -105.52749    292.03977 
    5120   0.96018125   -9424.6717    9.7770138    296.34587 
    5130   0.96078801   -9419.8005    5.8697924     301.1648 
    5140   0.96139588   -9414.5775    87.672624    300.11812 
    5150   0.96192767   -9409.3307    117.31491    303.60268 
    5160   0.96231472   -9403.6714    278.92657    295.79451 
    5170    0.9624316   -9398.1545    89.732131    300.41183 
    5180   0.96241582   -9392.0938    42.818407    303.14552 
    5190   0.96234027   -9386.1463    89.147757    303.12265 
    5200    0.9621509   -9380.6123    142.43718    302.51047 
    5210   0.96179031   -9375.3147    139.33706    299.41952 
    5220   0.96128022   -9370.1699   -129.10498    306.78081 
    5230   0.96086842   -9365.0336   -108.49266     305.3676 
    5240    0.9605621   -9360.6192    93.632982    297.65465 
    5250   0.96017052   -9356.6114    5.7141999     300.5196 
    5260   0.95975273   -9352.7595   -93.436626    303.05788 
    5270    0.9594204   -9349.0778   -107.77894    303.54443 
    5280   0.95921441    -9345.858   -150.80311    304.60879 
    5290   0.95917005   -9343.0252   -78.845759    303.47687 
    5300   0.95922533   -9340.6156   -8.9707475    301.02543 
    5310   0.95931274   -9338.6388   -114.11265    305.73977 
    5320   0.95951711   -9336.7681   -26.210525    303.41316 
    5330   0.95976799   -9335.4143    68.498865    303.06479 
    5340   0.95995516   -9334.2716    81.828696    299.78429 
    5350   0.96006645   -9333.4162   -48.481482    305.13308 
    5360     0.960211    -9332.656    19.896538    304.08006 
    5370   0.96036018   -9332.0593    14.367294      295.577 
    5380   0.96054242   -9331.4558    -318.3964    304.29072 
    5390   0.96108119   -9330.9444    -439.9364    310.89375 
    5400   0.96215166   -9331.0153   -315.09928     315.7139 
    5410   0.96359687   -9331.5316    202.22404    313.33163 
    5420   0.96485386   -9332.8827     712.8202    308.39928 
    5430   0.96532432   -9334.6329    884.20274    300.63802 
    5440   0.96479874   -9336.8389     521.5645     302.0855 
    5450   0.96362072   -9338.8302     118.6475    303.02778 
    5460   0.96224792   -9340.4849   -147.55695    300.66414 
    5470   0.96101976   -9341.8954   -460.32223    306.41047 
    5480   0.96026738   -9343.1489   -426.76658     307.5334 
    5490   0.95998298   -9344.7763   -87.416813    298.11876 
    5500   0.95982312   -9346.6077    71.031621    294.23184 
    5510     0.959595   -9348.3506    2.9799447    296.66447 
    5520   0.95935601   -9349.8841   -81.921457    295.91634 
    5530   0.95920894   -9351.3095   -165.16035    300.20861 
    5540   0.95923783   -9352.6588   -82.655049    297.96931 
    5550   0.95937927   -9354.0291     -33.9363    297.64881 
    5560   0.95956244   -9355.4932    21.570081    303.42973 
    5570   0.95970548   -9357.1324     214.2341    299.98381 
    5580   0.95961341   -9358.9382    251.61016    295.35782 
    5590   0.95923111   -9360.5922    95.397148    295.98614 
    5600   0.95873197   -9362.0916   -182.81631    301.35705 
    5610    0.9584195    -9363.268    -319.2431    303.14822 
    5620   0.95846825   -9364.4654   -259.57541    300.06562 
    5630   0.95882869   -9365.9171   -114.53564    300.42859 
    5640   0.95934254   -9367.7881     4.769021    304.82706 
    5650   0.95985556   -9369.5641    201.71825    295.00581 
    5660   0.96019995   -9371.6161    17.640326    297.09217 
    5670   0.96051417   -9373.4156   -41.078008    296.87416 
    5680   0.96088301   -9374.8621    19.605895    295.11916 
    5690   0.96124502   -9376.4887    36.982115    299.29864 
    5700   0.96156177   -9378.0519    161.15411    301.38806 
    5710   0.96167794   -9379.8106    393.04648    294.50196 
    5720   0.96135261   -9381.8907    357.68949    291.36694 
    5730   0.96059581   -9383.7054    157.62387     289.1507 
    5740   0.95963568   -9385.2672   -187.97604    298.16064 
    5750    0.9588322   -9385.9961   -278.35723     296.0592 
    5760   0.95834167    -9386.816   -310.97031    296.10252 
    5770   0.95819325   -9387.6492   -212.89364    299.20742 
    5780   0.95828816   -9388.4845   -19.606691    296.94422 
    5790   0.95842235   -9389.5359    82.155025    296.73752 
    5800   0.95846143     -9390.42    154.59203    294.46801 
    5810   0.95832767   -9391.3567     113.4652     295.0649 
    5820   0.95805743   -9392.1252    17.739367    295.01631 
    5830   0.95776521   -9392.9892   -151.18453    303.11852 
    5840   0.95760675   -9393.5989   -63.426558    302.38068 
    5850   0.95751987   -9394.8213     21.37194    301.59297 
    5860   0.95741419    -9396.113   -8.1275533    298.91108 
    5870   0.95732517   -9397.3709   -91.019696    297.74929 
    5880   0.95732584   -9398.4703   -4.1700729    293.11596 
    5890    0.9573438   -9399.6651    30.755069    292.29039 
    5900   0.95732997   -9400.8133   -1.8500095     293.6895 
    5910   0.95732532   -9401.8346    -96.55201    298.62604 
    5920   0.95740975   -9402.8343    14.313219    297.10598 
    5930   0.95747559    -9403.986    197.74791    291.74114 
    5940   0.95733237   -9405.1297    138.65401    294.13689 
    5950   0.95702597   -9406.3286    -46.45442    298.88807 
    5960    0.9567545   -9407.2609   -154.74475     298.9414 
    5970   0.95665956    -9408.398   -192.75356    298.62507 
    5980   0.95678236   -9409.5901   -92.081852     294.3519 
    5990   0.95702899   -9410.9771   -32.402727     293.6532 
    6000   0.95733131   -9412.4992   -103.41566     301.1864 
    6010   0.95774855   -9414.3423   -50.558074    302.10006 
    6020   0.95823917   -9416.3409    89.781065    295.64958 
    6030   0.95865894   -9418.8613     138.3743    296.45797 
    6040   0.95891326   -9421.5788    222.20505    293.15392 
    6050   0.95893545   -9424.4743    66.398756    295.94881 
    6060   0.95885724    -9427.446    4.9027224    298.24174 
    6070   0.95875935   -9430.7888    65.283735    297.48761 
    6080   0.95858943   -9434.5792     17.91704    297.55345 
    6090   0.95839187   -9438.4864   -28.199054    293.22234 
    6100   0.95823879   -9442.6753   -168.73043     294.2432 
    6110   0.95827031   -9446.8855   -206.41692    296.81453 
    6120   0.95852754   -9451.1755   -42.186749    296.39148 
    6130   0.95884017   -9455.9183    194.47243    291.88876 
    6140    0.9589477   -9460.7135    296.41022     287.4356 
    6150   0.95872031   -9465.4324    166.14779     288.1001 
    6160   0.95828646   -9469.5223   -24.959161    286.70164 
    6170    0.9578692   -9473.2953   -199.41754    288.33583 
    6180   0.95766674   -9476.5821   -251.17605    287.71752 
    6190   0.95776605   -9479.6759   -293.48804    291.08477 
    6200   0.95820765     -9482.81   -198.14226    292.84006 
    6210     0.958904    -9485.636   -83.359014    292.80593 
    6220   0.95973313   -9488.5219   -26.904223    294.26632 
    6230   0.96061368   -9491.2615     128.5265    292.14566 
    6240   0.96137879   -9493.8892    220.13519    289.49434 
    6250   0.96192272   -9496.2114    151.47629    288.82335 
    6260   0.96230183   -9498.1625    77.774322    290.86859 
    6270   0.96259609   -9499.9269    28.823269    292.81196 
    6280   0.96286183   -9501.3123    19.876158    289.90627 
    6290   0.96312055   -9502.5064   -39.921801    290.11123 
    6300   0.96342824   -9503.4355   -68.068741    291.72066 
    6310   0.96381849   -9504.3343    2.2458592    291.53272 
    6320   0.96421699   -9505.0129    138.46455     288.1332 
    6330   0.96448669   -9505.5881    99.768516    291.98517 
    6340   0.96463979   -9505.8993    41.642893    293.49713 
    6350   0.96474535   -9505.9424    23.183181     291.7702 
    6360   0.96483223   -9506.0346   -29.914264    297.17802 
    6370   0.96492547   -9505.9134    163.44895     293.4154 
    6380    0.9648356   -9505.8048     308.2249    289.08876 
    6390   0.96439097   -9505.5712    205.72735    289.63022 
    6400   0.96368665   -9505.1465   -24.074017    296.36852 
    6410   0.96295402   -9504.2799   -52.489531    295.20095 
    6420   0.96227967   -9503.2513   -168.40483     291.5878 
    6430   0.96179648   -9501.9336   -361.34445    294.05795 
    6440   0.96170608   -9500.2473    -304.7434    292.99053 
    6450   0.96196763   -9498.6302   -81.540846    292.79701 
    6460   0.96233332   -9496.9502    177.32205    289.66785 
    6470    0.9625271   -9495.1065    168.51754    291.01141 
    6480   0.96253976    -9493.012   -18.808657     292.3543 
    6490   0.96258756   -9490.4155   -258.04546    294.47351 
    6500   0.96293904   -9487.4283   -370.46705    300.73731 
    6510   0.96370117   -9484.4953   -44.124391    300.08124 
    6520   0.96454861   -9481.6708    333.74703    293.69859 
    6530   0.96506647   -9478.9891    331.37288    295.39953 
    6540   0.96520186    -9476.074    270.51006    295.91897 
    6550   0.96501157   -9473.0103    259.76269    292.70523 
    6560   0.96451967   -9469.6687    110.68498    296.48085 
    6570   0.96386295   -9466.1058   -3.0301876    299.35558 
    6580   0.96317178   -9462.4801   -38.833757    299.50002 
    6590   0.96249586   -9458.7959   -69.012846    303.57029 
    6600   0.96186983   -9455.1197   -81.716941    304.09328 
    6610    0.9613197   -9451.5639    -59.01694    302.28911 
    6620   0.96080531   -9448.1221    129.14334    293.21932 
    6630    0.9601501   -9445.0583    39.144143    300.50896 
    6640    0.9593884   -9441.7097    125.61226    296.33191 
    6650   0.95847344   -9438.6257     82.84812    290.65236 
    6660   0.95744636   -9435.2632   -183.10379     297.1666 
    6670   0.95657992   -9431.4278   -299.51887      295.623 
    6680   0.95606869   -9427.5125   -521.29151    300.34953 
    6690   0.95613722   -9423.5793   -462.60798    298.77381 
    6700   0.95677025   -9420.0594   -298.22745    302.29349 
    6710   0.95775446   -9416.7048    104.30316    300.41212 
    6720   0.95866719   -9413.8843    427.66894    294.65228 
    6730   0.95913563   -9411.3376    358.90959    298.26636 
    6740   0.95919534   -9408.7936      121.226    303.81108 
    6750   0.95909099   -9406.1836   -3.7171088    305.28541 
    6760   0.95897357   -9403.8699     10.81001    300.51527 
    6770   0.95884828   -9401.8304    14.619279     298.8434 
    6780   0.95871096   -9400.1195   -69.013898    306.50322 
    6790   0.95863511   -9398.4385   -36.070032    306.37643 
    6800   0.95858784   -9397.0408    174.32151    295.85837 
    6810   0.95834599   -9396.1471    246.04327    293.73234 
    6820     0.957816   -9395.3618    82.810135    298.52559 
    6830    0.9571506   -9394.0993    20.768398     296.0816 
    6840   0.95643729   -9393.0853     22.85085    296.29957 
    6850   0.95567333   -9392.1636    9.2521303    297.58158 
    6860   0.95488286   -9391.1984   -66.764001    298.69955 
    6870   0.95413881   -9390.3193   -75.182515    294.76049 
    6880    0.9534853   -9389.2717    -274.8048    300.91027 
    6890   0.95312437   -9388.1064   -386.65714    307.06952 
    6900   0.95319844   -9387.1037   -254.73748    304.75126 
    6910   0.95358374   -9386.7652   -58.791906    302.27323 
    6920   0.95405422   -9386.6218    146.66451    295.86484 
    6930   0.95437906    -9386.646     204.7761    297.89954 
    6940   0.95445914   -9386.5948    240.31971    299.62982 
    6950    0.9542514   -9386.8426    257.83108    298.56019 
    6960   0.95372443   -9387.0557    294.37668    291.66742 
    6970   0.95285064   -9387.2519    130.28143    290.03618 
    6980   0.95180721   -9386.9323   -166.18301     296.5558 
    6990   0.95090278   -9386.2396   -214.88474    295.14129 
    7000   0.95022973   -9385.6406   -209.63222    293.68892 
    7010   0.94979644   -9384.9053   -280.29132      294.413 
    7020   0.94968638   -9383.9631   -324.67967    298.00409 
    7030   0.94994665   -9383.0225   -198.89952    295.88466 
    7040   0.95046774    -9382.125   -118.84352    293.26964 
    7050   0.95114827    -9381.293   -12.074551    292.55274 
    7060   0.95186836   -9380.4766     81.35464    292.20685 
    7070   0.95252678   -9379.5347    74.521073    291.36327 
    7080    0.9531191   -9378.3035    5.4933592    292.63411 
    7090   0.95372876   -9377.0339    -123.0341    298.44267 
    7100   0.95449748   -9375.8813   -194.34803    301.99616 
    7110   0.95551464   -9374.8494   -124.13592    307.43828 
    7120   0.95665967   -9374.1851    360.50714    302.47193 
    7130    0.9574221   -9373.9328     698.7499    297.26993 
    7140    0.9573984   -9374.1693    635.75982     297.2012 
    7150   0.95662743   -9374.2476    339.33614    294.51354 
    7160   0.95544896   -9374.0296   -146.21076    295.62022 
    7170   0.95440017   -9373.0788   -490.88183    299.22224 
    7180   0.95388453   -9372.0718   -557.47628    306.70725 
    7190   0.95399402   -9371.2916   -295.66711    297.73989 
    7200   0.95450112   -9370.7958   -204.10287    296.99323 
    7210   0.95526363   -9370.5116   -128.26139     306.6883 
    7220    0.9561641   -9370.4878    245.68333    300.45807 
    7230   0.95682238   -9370.6702    479.80556    293.76219 
    7240   0.95694361   -9370.9782    483.43734     292.8083 
    7250   0.95648452   -9371.2364    401.48533    291.56795 
    7260   0.95554527   -9371.2901    167.77787    287.23351 
    7270   0.95439023   -9370.7437   -139.76357    286.29244 
    7280     0.953365   -9369.6141   -340.88292     290.6639 
    7290   0.95270308   -9368.0558   -375.09508    293.71653 
    7300   0.95247645   -9366.2303   -386.39913    294.21924 
    7310    0.9527163   -9364.3178   -395.05681    295.34362 
    7320   0.95342009   -9362.5132   -196.50209    294.55769 
    7330   0.95438098   -9360.9491    48.566282    298.53531 
    7340   0.95529571   -9359.3526    362.45855    295.89073 
    7350   0.95583124   -9358.0919    424.02736    294.49309 
    7360    0.9558849   -9356.6947    272.42801     298.0654 
    7370   0.95561213   -9355.1362    50.026361    303.62766 
    7380    0.9552598   -9353.5314   -113.27905    304.59974 
    7390   0.95504221   -9351.9401   -310.97753    303.98344 
    7400   0.95519024   -9350.4668    -431.7945    305.01646 
    7410   0.95583225   -9349.3385   -242.26997    304.96308 
    7420   0.95677271   -9348.5345    148.40615    299.05054 
    7430   0.95759863   -9348.1418    264.12359    302.21039 
    7440   0.95813471   -9347.6887    280.77392    301.98413 
    7450   0.95836012   -9347.3924    240.92999    299.51755 
    7460   0.95831057   -9347.1079    109.42422    304.53883 
    7470   0.95810863   -9347.0012    90.313922     304.0458 
    7480   0.95778904   -9347.0561    110.75723    298.04134 
    7490   0.95733801   -9347.1719    66.366226    292.49592 
    7500   0.95680945   -9346.9741   -120.00325    296.49357 
    7510   0.95640912   -9346.6369    -361.4309     310.8389 
    7520   0.95637847   -9346.3614   -218.60317    312.50541 
    7530   0.95660131   -9346.7716    68.782362    307.98952 
    7540   0.95676731   -9347.9048      226.124    307.01748 
    7550   0.95665693   -9349.1131    392.31086    298.04657 
    7560   0.95611878   -9350.9709    165.82153     299.3528 
    7570   0.95535328   -9352.4142   -103.30641    299.25268 
    7580   0.95467837   -9353.7497   -274.16866    297.70182 
    7590   0.95430124    -9355.259   -330.04495    301.08576 
    7600   0.95429449   -9356.8391    -237.2908    299.75344 
    7610   0.95458844   -9359.0348   -223.16414    302.33516 
    7620   0.95515437   -9361.4522   -128.61291    302.59124 
    7630   0.95589167   -9364.3618    45.312845    299.68793 
    7640   0.95660812   -9367.7791    162.67982    299.68561 
    7650   0.95715175   -9371.7047    249.13546    299.70535 
    7660   0.95742989   -9376.1966    195.80549     299.5136 
    7670   0.95747588   -9381.0772    172.85878    294.52033 
    7680    0.9573264   -9386.4391    49.606535    296.77225 
    7690   0.95709201   -9392.1194   -15.285359    296.31801 
    7700    0.9568761   -9398.2815   -114.28657      300.905 
    7710   0.95677471   -9404.6813   -91.698689    296.90874 
    7720   0.95681413   -9411.4818   -238.87842     300.1128 
    7730   0.95711504   -9418.5349   -198.92194    300.46018 
    7740   0.95766104   -9425.7342    -15.41899    295.29232 
    7750   0.95825408   -9432.9731    87.642041    297.72863 
    7760   0.95875647   -9439.7141    169.81489     296.3146 
    7770   0.95908214    -9446.292    154.90842    294.89274 
    7780   0.95923046   -9451.9929    154.59267    289.57702 
    7790   0.95920943   -9457.1253    59.031021    292.92426 
    7800   0.95909521   -9461.6578    63.501008    288.12561 
    7810    0.9589387   -9465.3568   -179.31568    289.99168 
    7820   0.95897805   -9468.2895   -314.64244     294.2856 
    7830   0.95936633   -9470.6718   -128.84771    290.80264 
    7840   0.95993688   -9472.8173   -14.499418    292.19876 
    7850   0.96053604   -9474.6012     132.5605    287.71899 
    7860   0.96101678   -9476.0426    123.52428    285.73106 
    7870   0.96138222    -9477.205   -84.986499     291.3629 
    7880   0.96183815   -9477.8078   -174.84437    295.48516 
    7890    0.9625001   -9478.2886   -84.429036    295.08992 
    7900   0.96327385   -9478.7509    122.15348    292.40018 
    7910   0.96393509   -9479.1911    238.03549      291.744 
    7920   0.96434462   -9479.4878    178.33316    294.24879 
    7930   0.96454747   -9479.4982    118.39661    290.43597 
    7940   0.96462647   -9479.4647   -30.925628    295.69429 
    7950   0.96472026   -9479.0053   -4.6160445    292.70397 
    7960    0.9648444   -9478.5684   -91.087204    294.96381 
    7970    0.9650605   -9477.9319   -59.638183    294.05602 
    7980    0.9653586   -9477.2851    14.263564     290.2885 
    7990   0.96566333   -9476.4583    4.5872638    292.16431 
    8000   0.96596431   -9475.5713     18.99977    298.25632 
    8010   0.96622118   -9474.4898    257.25644    292.69334 
    8020   0.96620172   -9473.5807    317.16701    286.81303 
    8030   0.96583806   -9472.5412    20.839766    295.38335 
    8040   0.96540509   -9470.9067    -94.16379    297.86302 
    8050   0.96506558   -9469.3594   -129.18778    301.32397 
    8060   0.96485572   -9467.7959   -19.668966     295.6023 
    8070   0.96468698   -9466.2595    12.182717    292.23366 
    8080   0.96450085    -9464.715   -20.248907    298.91054 
    8090   0.96430749   -9463.1237    90.222654    296.62782 
    8100   0.96401535   -9461.5933    24.275634    299.69195 
    8110   0.96368544   -9459.8293    -78.27298    298.28764 
    8120   0.96344819   -9458.1707   -166.96594    297.49405 
    8130    0.9633921   -9456.3131   -133.06442    297.18183 
    8140    0.9634904    -9454.388   -24.090475    296.03879 
    8150   0.96361851   -9452.5121    72.485661    295.71716 
    8160   0.96367559   -9450.8552     76.07646    297.91315 
    8170   0.96363481    -9448.889    105.61529    292.06723 
    8180   0.96350478   -9446.9661   -127.00068    298.66961 
    8190   0.96348536    -9444.734   -136.57042    298.96202 
    8200   0.96362399   -9442.5335   -32.934169    297.73626 
    8210   0.96379771    -9440.296    162.73016    294.99256 
    8220   0.96379955   -9438.2859    243.87389      290.899 
    8230   0.96353423   -9436.1825    83.808061     294.2766 
    8240   0.96315067   -9433.6125   -84.713266    298.90119 
    8250    0.9628366   -9430.9823   -123.20523    301.90519 
    8260   0.96263664   -9428.2575    46.310435    294.94575 
    8270   0.96239215   -9425.6686    64.487891     299.5548 
    8280   0.96203644   -9423.2101    179.86139    299.35004 
    8290   0.96145019   -9420.9712    260.56965    295.19654 
    8300    0.9605502   -9418.6373    158.02928    288.52999 
    8310   0.95945838   -9415.9596   -187.52239    291.08576 
    8320   0.95854877   -9412.6309   -519.15116    301.99931 
    8330   0.95818611   -9408.8769   -446.29572    303.56854 
    8340   0.95832181   -9405.5913    -85.69948    295.07158 
    8350    0.9585974   -9402.7174    73.020911    293.28055 
    8360   0.95881601   -9399.6714   -3.7513317    296.27049 
    8370    0.9590598   -9396.4212   -195.46057    301.07548 
    8380   0.95954104   -9393.1967   -267.97924    303.02692 
    8390   0.96034371   -9390.1463   -78.677119     299.1935 
    8400   0.96129155   -9387.5769    46.713691     302.8092 
    8410   0.96221492    -9384.888    166.36568     303.5259 
    8420   0.96298145   -9382.5296    233.46735    304.87428 
    8430   0.96348222   -9380.4704    409.53446    299.64341 
    8440   0.96353248   -9378.5697    374.77263    300.07098 
    8450   0.96314276   -9376.9681    144.53213    306.06235 
    8460   0.96254197   -9375.2945    38.080604    307.20973 
    8470   0.96186109   -9374.0715    18.208403    307.71202 
    8480   0.96112459   -9373.0126    58.022168    305.62234 
    8490   0.96029467   -9372.4918    91.126876    300.38374 
    8500   0.95933553   -9371.9245    28.594781    298.88484 
    8510    0.9583045   -9371.3917   -15.216969    298.74098 
    8520   0.95725233   -9370.6688   -19.229701     297.2689 
    8530   0.95619088   -9370.1531   -95.706645    302.04031 
    8540   0.95519365    -9369.536   -86.110067    298.49473 
    8550   0.95429579   -9368.7687   -210.97407    294.75185 
    8560   0.95363005   -9368.0386   -330.59407    298.74394 
    8570   0.95331401   -9367.0601   -235.11396    299.25873 
    8580   0.95326899   -9366.2493   -109.13605    297.95526 
    8590   0.95336178   -9365.5522   -9.6802314    296.85793 
    8600   0.95348038   -9364.9592   -4.9607534     298.5092 
    8610   0.95361678   -9364.4199   -83.860794     300.4814 
    8620    0.9538531   -9363.8422    -126.9584    302.22253 
    8630   0.95423791   -9363.3325   -15.080552    298.77078 
    8640   0.95466099   -9362.9385     91.43286     294.7336 
    8650   0.95500689   -9362.6155     38.74604    299.06197 
    8660   0.95530864   -9362.2262   -17.104112    301.30087 
    8670   0.95564621   -9361.6488   -70.582632    301.40525 
    8680    0.9560767   -9361.1819   -66.977486    302.60683 
    8690   0.95660083   -9360.9076   -43.371866    304.58841 
    8700   0.95717764   -9360.9232     96.05074    301.55571 
    8710   0.95767462    -9361.039    92.557037    301.21805 
    8720    0.9580864   -9361.2879   -17.664069    304.45344 
    8730   0.95851797   -9361.6348    11.205551    304.31051 
    8740    0.9589476    -9362.487    80.185373    308.98316 
    8750    0.9592697   -9363.5954    346.47861    302.00678 
    8760   0.95920518   -9365.2575     445.0553    299.63235 
    8770   0.95860664   -9367.4142    403.63585     298.4567 
    8780   0.95752003   -9369.5475    177.06227    294.24064 
    8790   0.95620465   -9371.7687   -250.19283    304.04038 
    8800    0.9551162   -9373.7418   -398.56612    304.21306 
    8810   0.95446887   -9376.0957    -353.9011     300.9612 
    8820    0.9542268   -9379.2011   -213.74706     298.8037 
    8830   0.95422358   -9383.0467    44.351609    292.43114 
    8840   0.95419267   -9387.3334    95.031839    292.97382 
    8850    0.9540535   -9392.0734    24.769325    294.48574 
    8860    0.9538683   -9396.9573    18.847031    292.52277 
    8870   0.95368251   -9402.3468   -194.85818     298.2315 
    8880   0.95369166   -9407.5055    -164.2119    290.92455 
    8890    0.9539289   -9413.2876   -274.09835    296.31483 
    8900   0.95447705   -9419.1092   -222.66007    296.47917 
    8910   0.95532518   -9425.1448   -184.98391    298.90931 
    8920   0.95641405   -9431.4722   -78.079877    301.13672 
    8930   0.95762124   -9437.5512    135.41778     297.0259 
    8940   0.95871604   -9443.8691    210.31081    298.85638 
    8950   0.95958507   -9449.7635     264.4561    296.25343 
    8960   0.96018531   -9455.3971    112.26102    297.57898 
    8970   0.96067575   -9460.8166   -110.83019    303.06655 
    8980   0.96126868   -9465.7855    57.021246     295.8347 
    8990   0.96181912   -9470.4561    230.37575    292.19156 
    9000   0.96211732   -9474.7214    241.51161    293.90561 
    9010   0.96213012   -9478.5033    240.31962    290.47155 
    9020   0.96186367   -9482.0725    193.01528    288.65121 
    9030   0.96136081   -9484.8207    80.905718    283.76279 
    9040   0.96077993   -9487.0734   -288.51629    290.86512 
    9050   0.96048968   -9488.4549   -380.67289    292.42933 
    9060   0.96063811   -9489.7366   -269.06094    291.06138 
    9070   0.96111387   -9490.7869   -99.803782    286.21198 
    9080   0.96174299   -9491.9295   -34.422237     287.2047 
    9090   0.96242555   -9492.5434    43.447043    290.79259 
    9100   0.96307207   -9492.9368    144.27175    290.76947 
    9110   0.96356183   -9493.0551    241.21072    289.24492 
    9120   0.96378797   -9493.1984    229.12127    289.65001 
    9130    0.9637487   -9492.9007    172.60381    284.64297 
    9140   0.96351909   -9492.3969   -25.248027    290.68633 
    9150   0.96327874   -9491.3272   -21.521279    291.53573 
    9160   0.96307088   -9490.0638   -87.211442    290.57081 
    9170    0.9629757   -9488.5069    -274.7472    294.02334 
    9180   0.96319551   -9486.9012    -316.3059     299.4507 
    9190    0.9637592   -9485.1526    66.114879    291.08753 
    9200   0.96429293   -9483.6631     286.4121    288.12525 
    9210   0.96452994   -9482.0836    188.43342    293.23886 
    9220   0.96453264   -9480.2144    133.76299    292.09717 
    9230   0.96437873   -9478.1525    60.585747    293.18377 
    9240   0.96414488   -9475.7773   -36.210933    299.07999 
    9250   0.96392318   -9473.3917    62.895109    296.70431 
    9260   0.96362591   -9471.2568    175.08227    294.21119 
    9270   0.96311081   -9468.9585    194.95314    290.52521 
    9280   0.96237914   -9466.6715   -142.58237    300.53898 
    9290   0.96175553   -9463.7609   -253.44828    298.04224 
    9300   0.96142928   -9460.8665    -290.3928    297.04552 
    9310   0.96142347   -9458.0324   -140.07864    296.21573 
    9320    0.9615772   -9455.3196    115.84955    292.96162 
    9330     0.961613   -9452.6892    197.16994    290.29171 
    9340   0.96143594    -9449.769    65.297761    288.91338 
    9350   0.96117642   -9446.5956   -75.001732    291.41973 
    9360   0.96097811   -9443.0208   -64.412867    290.56383 
    9370   0.96087574   -9439.3659   -226.97665    298.41731 
    9380   0.96102059   -9435.5037   -243.05878    301.22259 
    9390   0.96144507   -9432.0526   -39.749191    300.97816 
    9400   0.96191924   -9428.7654    294.20929    294.23849 
    9410   0.96208762   -9425.8988    402.35737    292.87543 
    9420   0.96178236   -9423.1361    334.10315    293.83759 
    9430   0.96108421   -9420.2594    71.699064    294.81917 
    9440   0.96025795   -9416.9483   -103.98109    294.05031 
    9450   0.95954034   -9413.6599   -312.62992    297.35442 
    9460   0.95916269   -9410.1983   -397.49634    298.77885 
    9470   0.95923185    -9406.863    -239.9118    297.94676 
    9480   0.95959165   -9403.8831   -44.450025    299.56467 
    9490   0.96000845   -9401.0871    216.02154    293.96039 
    9500    0.9602025   -9398.7166    292.03098     291.9612 
    9510   0.96008634   -9396.2241    22.347936    298.45839 
    9520   0.95993296   -9393.5244   -239.77089    306.66616 
    9530   0.96001292   -9390.9296   -99.541063    305.50814 
    9540   0.96021161   -9388.9362    139.97301    301.74066 
    9550   0.96027115   -9387.4401    176.88661    301.37933 
    9560   0.96014075   -9386.0813  -0.36902135    305.34438 
    9570    0.9599906   -9384.6985   -67.072111    303.10693 
    9580   0.95991097   -9383.5098     -23.5893    301.96772 
    9590   0.95984896   -9382.6271    73.667974    301.76951 
    9600   0.95970215   -9381.9642    122.45753     298.7955 
    9610     0.959414   -9381.4458     90.03292    297.67932 
    9620   0.95901103   -9380.8036    6.9761777    300.03428 
    9630   0.95858379   -9380.3234     -124.322    305.55429 
    9640   0.95826537   -9380.0086   -58.727287    303.81825 
    9650   0.95800628   -9379.7656    90.669814    294.13917 
    9660   0.95766584   -9379.6624    -15.99316    297.30824 
    9670   0.95732297   -9379.4314   -133.16296    305.05919 
    9680   0.95710624   -9379.2534    -69.37277    304.72418 
    9690   0.95696993   -9379.3459   -5.8054047    303.09268 
    9700    0.9568342    -9379.802    64.403052    300.59369 
    9710   0.95662589   -9380.2571     67.17428    300.09242 
    9720   0.95632988    -9380.647    36.480812    298.59884 
    9730   0.95598923   -9381.0287   -66.530357    299.80851 
    9740    0.9557239   -9381.3953   -229.27919    306.62695 
    9750   0.95569067   -9381.8715   -109.40352    303.38398 
    9760    0.9557995   -9382.7463   -7.7548276    296.48345 
    9770   0.95595892   -9383.5054   -187.47486    302.68892 
    9780   0.95630992   -9384.2408   -99.183483    305.71698 
    9790   0.95677379   -9385.3787    207.99542    296.12327 
    9800   0.95704646   -9386.8316    174.92901    300.14644 
    9810   0.95709886   -9388.2192     198.5476    301.10986 
    9820   0.95691184   -9389.7799    246.68653    296.61774 
    9830   0.95644357     -9391.31    88.035687    294.86681 
    9840   0.95586028    -9392.374   -121.01631    293.67332 
    9850   0.95539074   -9393.1717   -212.04744    295.01014 
    9860   0.95515043   -9393.8226   -184.45578    291.54682 
    9870   0.95513585    -9394.474   -205.62967    293.11263 
    9880   0.95536659   -9394.9428    -210.1438    291.79171 
    9890   0.95586253   -9395.2342   -158.95737    288.43595 
    9900   0.95656677   -9395.2688    -49.88663    290.34623 
    9910   0.95736498   -9395.4329    -3.793144    295.91274 
    9920   0.95818048   -9395.2454     142.5456    293.72784 
    9930   0.95887113   -9395.0821    165.06183    290.97577 
    9940   0.95941627     -9394.83    -99.43431     299.4114 
    9950   0.96006584   -9394.2749   -124.45328    300.29781 
    9960   0.96087715    -9393.744     17.91579    299.02813 
    9970   0.96169404   -9393.3458    175.00409    298.53645 
    9980   0.96233476   -9392.9864    275.35009    299.31006 
    9990   0.96266714   -9392.7139    301.46812    304.75796 
   10000   0.96262359   -9392.6678    463.38824    300.21742 
   10010   0.96203138   -9393.1808    536.04005    293.40108 
   10020   0.96081434   -9393.6575     226.3703    291.53472 
   10030   0.95929951   -9393.4496   -245.90362    298.02414 
   10040   0.95798285   -9392.5252     -318.917    294.56662 
   10050   0.95702019   -9391.3108   -368.92188    295.33292 
   10060   0.95646673   -9389.8618   -373.11103    298.79874 
   10070   0.95634056   -9388.2693   -275.89236    296.41575 
   10080   0.95656469   -9386.6906   -264.78199    300.00392 
   10090   0.95709279   -9384.9609   -68.714029    299.26113 
   10100   0.95771206   -9383.3168    221.13742    293.67447 
   10110   0.95811757    -9381.488    204.76765    294.23684 
   10120   0.95832156   -9379.1722   -134.76266    305.54063 
   10130   0.95864226   -9376.4531   -84.761861    301.73482 
   10140    0.9590883   -9373.8264    2.9468512    301.02213 
   10150   0.95954237   -9371.0634    81.599077     302.2424 
   10160   0.95991408   -9368.0983    196.60554    297.92644 
   10170   0.96006718   -9365.1169    245.37871    295.82471 
   10180   0.95994168    -9361.974    170.49007    296.17496 
   10190    0.9596096   -9358.2778    54.125325    293.48294 
   10200   0.95921028   -9354.2803   -116.51401    296.96729 
   10210   0.95892211   -9349.7274   -177.69755    300.83974 
   10220   0.95882933   -9345.1884   -163.55179    302.91275 
   10230   0.95892449   -9340.3953    -109.8562    302.51761 
   10240   0.95917005   -9336.1355   -119.12646    306.69309 
   10250    0.9595499   -9331.8779    26.987847    307.18719 
   10260   0.95991382    -9328.118    170.04901     310.4497 
   10270   0.96007557   -9324.7389    348.19379     306.2027 
   10280   0.95984073   -9321.9333    356.77469    303.51906 
   10290   0.95919447    -9319.341    91.148641    308.09744 
   10300   0.95838186   -9316.7834   -3.9457563    306.75681 
   10310   0.95754587   -9314.4975   -74.656116    302.89429 
   10320   0.95678693   -9312.1412    -282.0315    303.72826 
   10330   0.95633132   -9309.8253   -390.82252     308.1824 
   10340   0.95630046    -9307.727    -204.1588    305.02558 
   10350   0.95653725   -9306.1604   -82.855094    306.57261 
   10360   0.95687317   -9305.0004    52.143055    310.18164 
   10370   0.95715602   -9304.1809    182.97558    308.28033 
   10380   0.95723242   -9303.7734    254.50051    305.53242 
   10390   0.95700932   -9303.6905    285.00834    301.28906 
   10400   0.95645959   -9303.9975    78.633601    304.02293 
   10410   0.95578692   -9303.8825   -100.72174    296.56201 
   10420   0.95522759   -9303.6851   -304.19886    296.20492 
   10430    0.9549919   -9303.3031   -323.11632     300.3607 
   10440   0.95512031   -9302.9795   -215.41866    306.25966 
   10450   0.95549697   -9303.2054   0.13511987    307.59225 
   10460   0.95588829   -9303.7364    221.79226    302.25668 
   10470   0.95606081   -9304.4912    153.98366    305.42608 
   10480   0.95605501   -9305.3839   -8.9066164    309.84414 
   10490   0.95603969   -9306.6414    -12.02177    308.67321 
   10500   0.95603278   -9308.3393    49.275741    308.10714 
   10510    0.9559723   -9310.3031    64.004406    306.66605 
   10520   0.95584063   -9312.7182     8.010255    309.89179 
   10530     0.955668   -9315.3941    165.44125     302.2864 
   10540   0.95532212   -9318.5339    72.878271    303.50212 
   10550    0.9548913   -9321.7369   -216.80048    311.43509 
   10560    0.9546653   -9324.9755   -163.84295    305.98987 
   10570   0.95464878   -9328.7818   -163.08147    304.69678 
   10580   0.95484028   -9332.8753   -270.75484    304.12326 
   10590   0.95536232    -9337.017   -334.64328    304.56755 
   10600   0.95629124   -9341.4691   -236.31578    306.73426 
   10610   0.95751744   -9346.3063    58.561095    303.99307 
   10620   0.95871721   -9351.1822     336.2625    298.67475 
   10630    0.9595891    -9356.133    246.59898    302.13299 
   10640   0.96018414   -9361.1859    96.729019    307.57716 
   10650   0.96064094   -9365.9502    267.16228    298.53616 
   10660   0.96082982   -9370.8631    170.60439    303.83366 
   10670   0.96080349    -9375.676    85.319156    307.36667 
   10680   0.96066521   -9380.2812    93.281671    303.90828 
   10690   0.96041248   -9384.8857    113.95979     302.4419 
   10700   0.96001122   -9389.1323    147.01901    295.88038 
   10710   0.95944628    -9392.801    -9.893997    293.25809 
   10720    0.9588807    -9396.209   -210.47006    300.71575 
   10730   0.95851121   -9398.9643   -133.06401    298.59084 
   10740   0.95831554   -9401.8147   -193.69363    302.16369 
   10750   0.95833392    -9404.272   -166.06186    299.81019 
   10760    0.9585638   -9406.7377   -163.11732     298.0902 
   10770   0.95900899   -9409.2465   -239.15378    303.57533 
   10780   0.95972647   -9411.5253   -72.052384    301.31298 
   10790    0.9605601   -9413.8973    79.691508    301.32696 
   10800   0.96131852   -9416.4549    245.84293    300.27307 
   10810   0.96180996    -9418.636     396.7295     291.6719 
   10820   0.96188498   -9420.8035    187.46947     296.2137 
   10830   0.96171096   -9422.4291     69.55405    299.16988 
   10840   0.96143896   -9424.0469    37.707154    300.98528 
   10850   0.96109781   -9425.6275    130.76188    294.92929 
   10860   0.96061919   -9427.2072    18.814611    292.15359 
   10870   0.96011603   -9428.5543   -217.62287    299.47957 
   10880   0.95982351   -9429.6538   -197.09576    302.30015 
   10890   0.95974618   -9430.8724   -48.423668    301.97573 
   10900   0.95971379    -9431.947    188.16653    289.76551 
   10910   0.95949905   -9433.2209    83.389082    293.29383 
   10920   0.95915935   -9434.2373    21.470928    297.41419 
   10930   0.95878135   -9435.0853   -11.524554    297.13891 
   10940   0.95839538    -9435.935    48.093279    293.51018 
   10950   0.95793853   -9436.7166    126.78588    290.72848 
   10960    0.9573109   -9437.4858      150.665    288.91153 
   10970   0.95649931   -9437.9101   -33.939348    286.99355 
   10980   0.95572236   -9437.6308   -395.52043    291.81918 
   10990   0.95537773   -9436.7053    -565.3551    293.97126 
   11000   0.95569053   -9435.9055   -540.04093    295.39525 
   11010   0.95665878   -9435.2531   -402.91765    300.04416 
   11020   0.95813348   -9434.7301   -98.739302    297.78926 
   11030   0.95980565   -9434.5004    95.034223    297.58965 
   11040    0.9614206   -9434.2052    290.69451    294.84661 
   11050   0.96274707   -9433.8493    396.86535     295.4687 
   11060    0.9636286   -9433.4637    480.18174    294.06916 
   11070   0.96396488   -9433.0673    501.52761    294.10996 
   11080   0.96370192     -9432.66    455.42214     297.8916 
   11090   0.96288711   -9432.2201    270.55339    299.81679 
   11100    0.9617289    -9431.559   -7.7174358    297.47453 
   11110   0.96054102   -9430.5699   -176.70605    296.94417 
   11120   0.95950519    -9429.609   -73.593062    293.89709 
   11130   0.95854314   -9428.5313   -85.458304     291.2475 
   11140   0.95767698   -9427.0781   -267.87036    294.67357 
   11150   0.95709067   -9425.2901   -292.07824    294.01776 
   11160   0.95685112    -9423.281   -356.54831    295.93714 
   11170   0.95704048   -9421.2271   -432.45364    303.97264 
   11180   0.95770915   -9419.3006   -71.735608    298.64712 
   11190    0.9584838   -9417.4902    377.79477     290.3299 
   11200   0.95886374   -9415.9482    476.23732    292.25543 
   11210   0.95868358   -9414.1069    420.44253    289.03411 
   11220   0.95803763   -9411.9451   -16.312788    296.12676 
   11230   0.95736113   -9409.0857   -279.51068    301.62183 
   11240   0.95695958   -9405.9287    -116.1778    292.59456 
   11250   0.95671792   -9402.7873   -122.30023    291.11064 
   11260   0.95662602   -9399.5044   -235.98579    295.80709 
   11270   0.95679252   -9395.6651   -138.92487    289.42146 
   11280   0.95715313   -9391.7781   -119.12945    290.75859 
   11290   0.95767005   -9387.6198   -141.26472    299.29969 
   11300   0.95835328   -9383.2124    45.143229    297.91478 
   11310   0.95901559   -9379.2167    218.28446    299.08226 
   11320   0.95941827   -9375.1767    488.15137    296.16044 
   11330   0.95926303   -9371.3641    552.61991    294.36558 
   11340   0.95846756   -9367.5803     267.5885    293.80457 
   11350   0.95733484   -9363.4631   -160.02089    298.74737 
   11360   0.95631989   -9358.9534    -323.9221    304.79754 
   11370   0.95562255   -9354.5707   -131.20836    300.11885 
   11380   0.95509012   -9350.7626   -152.45409    304.14698 
   11390   0.95471173   -9346.8897   -137.54921    301.05424 
   11400   0.95450172   -9343.4748   -186.87736    297.35847 
   11410   0.95452505   -9340.0859   -340.20313    301.38111 
   11420   0.95493756   -9336.8822   -252.05905    303.49249 
   11430   0.95565528   -9334.2738   -17.871209    306.93069 
   11440   0.95641613   -9332.1516    242.21327    306.48832 
   11450   0.95691305   -9330.6493    472.25008     301.9159 
   11460    0.9568846   -9329.5983    464.89319    298.38975 
   11470   0.95632392   -9328.6244    145.82118    301.08721 
   11480   0.95556297   -9327.5827   -179.41678    305.85273 
   11490    0.9549683    -9326.519   -273.75453    303.88323 
   11500   0.95469182   -9325.6018   -320.87451    302.83627 
   11510   0.95477836   -9324.7177   -203.35727     302.3557 
   11520   0.95509586   -9324.3707    85.195448    299.85345 
   11530     0.955328   -9324.2395     274.9679    296.97846 
   11540   0.95527427   -9324.1631    133.42625    297.15225 
   11550   0.95505853   -9323.8403   -28.077501    295.25805 
   11560   0.95487171   -9323.3979   -177.66529    300.39128 
   11570   0.95488472   -9323.1251   -303.92209    309.64955 
   11580   0.95522951   -9322.9931   -149.14619    305.89013 
   11590   0.95577145   -9323.3303    41.034053    300.26499 
   11600   0.95629096   -9323.8903    136.70548    304.93444 
   11610   0.95663597   -9324.5138    380.44317     299.6297 
   11620   0.95656389   -9325.5632    374.46979    301.36076 
   11630   0.95603847   -9326.6267      256.725    301.15142 
   11640   0.95520178   -9327.6981    48.012834    300.18181 
   11650   0.95427448   -9328.4049   -49.386858    294.45582 
   11660   0.95338682   -9329.0088   -116.39231    292.39404 
   11670    0.9526212   -9329.4002   -232.33493    296.64623 
   11680   0.95212551   -9329.4402   -471.04569    304.85354 
   11690   0.95216323   -9329.4549    -526.6013    306.85198 
   11700   0.95280222   -9329.8616   -199.52756     300.2354 
   11710   0.95370001   -9330.5811    215.90128    290.42833 
   11720   0.95442051   -9331.3583    155.42913    294.77516 
   11730   0.95498114   -9331.9651   -137.72858    308.09948 
   11740    0.9556804   -9332.5261   -114.35999    305.00433 
   11750   0.95653085   -9333.4052    54.720578    298.91211 
   11760   0.95734898   -9334.5215    145.17579    301.86761 
   11770   0.95799676   -9335.6393    287.31177    298.84735 
   11780   0.95832518   -9336.8357     319.6249    297.76426 
   11790   0.95828654   -9338.0075    219.24451    299.52852 
   11800   0.95799098   -9339.3216    39.598765    304.64674 
   11810   0.95761684   -9340.6119    50.088287     300.8085 
   11820   0.95718692   -9341.7168    5.0441017    294.65519 
   11830   0.95676659   -9342.8257   -234.79472    301.67986 
   11840   0.95657998   -9343.7004   -188.13043    299.49284 
   11850   0.95662466   -9344.8519   -147.45064    300.16506 
   11860    0.9568261   -9345.8902    70.329104    291.19761 
   11870    0.9569772   -9347.0425    105.89645     293.9516 
   11880   0.95699838   -9348.0881     69.21717    301.93265 
   11890    0.9569307   -9349.1189    43.050002    306.37693 
   11900   0.95680234    -9350.353    84.543806    298.84275 
   11910   0.95659366   -9351.5407   -16.608573    295.80997 
   11920   0.95640129   -9352.7346   -175.71446    302.69339 
   11930    0.9563832   -9353.7779   -72.412641    297.76508 
   11940   0.95646865   -9355.1335   -43.622605    301.81288 
   11950   0.95659401   -9356.5573    58.706472    304.05195 
   11960   0.95664252   -9358.2969    214.03202    303.46701 
   11970   0.95643706   -9360.3366    308.87293    300.79002 
   11980   0.95587968   -9362.4972    197.54348    297.53028 
   11990   0.95507759    -9364.432   -61.937544     299.2489 
   12000   0.95431853   -9366.1642   -326.23471    302.28375 
   12010   0.95391086   -9367.8594   -440.98717    305.02263 
   12020    0.9539849   -9369.5468   -173.60003     295.8217 
   12030   0.95430199   -9371.5753   -37.740531     293.0051 
   12040   0.95468745   -9373.4376   -18.039404    295.92519 
   12050   0.95511759   -9375.3111   -63.140154    299.53155 
   12060   0.95563426   -9377.1049   -75.914506     303.3384 
   12070   0.95624423   -9379.3316    77.666332    301.96065 
   12080   0.95679012   -9381.7066    202.87006    298.68531 
   12090    0.9571299    -9384.097    145.06096    297.00636 
   12100   0.95732542   -9386.4192   -66.691329    299.67592 
   12110   0.95760052    -9388.779   -234.15779    306.23523 
   12120   0.95814451   -9391.3869   -149.80275    308.40155 
   12130   0.95887199   -9394.2713    137.60834    301.25944 
   12140   0.95950497   -9397.6834    173.93241    297.85187 
   12150   0.95996383   -9400.9404    95.509606    299.81479 
   12160   0.96030873   -9404.1718    158.53817     301.0826 
   12170   0.96046972   -9407.6795    246.35824    300.02387 
   12180   0.96035552   -9411.3974    156.75435    301.01501 
   12190   0.96004209   -9414.9231    45.900143    299.89266 
   12200   0.95966188   -9418.4436   -68.824957    299.63291 
   12210   0.95933372   -9421.8939   -54.742884    293.51699 
   12220   0.95907711   -9425.1559   -164.10798    296.82334 
   12230   0.95898708   -9428.2966   -130.07873    299.04226 
   12240   0.95903929   -9431.3454    68.464071     291.2779 
   12250   0.95904169   -9434.3608    36.043727    290.75536 
   12260    0.9590084   -9437.0631   -93.496203    291.03976 
   12270   0.95908303   -9439.0206   -193.17678    289.75315 
   12280   0.95940782   -9440.9413   -343.99528    296.22018 
   12290    0.9601375   -9442.7181   -281.85484    298.99705 
   12300   0.96123717   -9444.4223   -90.810533    297.58605 
   12310    0.9624926   -9446.1409    157.70543    295.00686 
   12320   0.96362248   -9447.8164    315.76076    294.27335 
   12330   0.96443598     -9449.29    262.98137    297.78503 
   12340   0.96496841   -9450.7097    112.48539    303.36506 
   12350   0.96536443   -9451.9733    105.46137    301.05006 
   12360   0.96566273     -9453.34    14.335263     303.3306 
   12370   0.96593593   -9454.6695     52.13891    304.53289 
   12380   0.96614416    -9455.912    223.25048    298.25038 
   12390    0.9661143   -9457.2964    241.63268    294.92232 
   12400   0.96578939   -9458.3376    274.08328    289.45552 
   12410   0.96512572   -9459.2953    259.35512    290.27876 
   12420   0.96410847   -9459.9717    305.79779     284.1943 
   12430    0.9627356    -9460.347   -50.820027     289.6984 
   12440   0.96138315     -9459.95   -547.27051    300.72012 
   12450   0.96060179   -9459.0033   -595.58619    301.41734 
   12460   0.96048562   -9458.2909   -292.48401     296.5097 
   12470   0.96073657   -9457.9459    -59.64526    291.90388 
   12480    0.9610936   -9457.5911    -52.76975    294.35057 
   12490   0.96152106   -9456.9946   -38.816468    292.18769 
   12500   0.96202219    -9456.585   -137.73923    298.35784 
   12510    0.9626768    -9455.956   -34.109735    297.83091 
   12520   0.96339237   -9455.6522    160.29356     292.1989 
   12530   0.96395355   -9455.3126    265.81108    290.89049 
   12540   0.96419764   -9454.7974    418.43613    288.18317 
   12550    0.9639663   -9454.3774    347.34563     291.9239 
   12560   0.96331449   -9453.6516     112.1675    296.09879 
   12570   0.96251497   -9452.5209   -178.42814    298.55962 
   12580   0.96189552   -9451.1625   -310.11001    296.39168 
   12590    0.9616251   -9449.7888   -298.68954    295.07123 
   12600   0.96169007   -9448.3465   -109.42008    291.94606 
   12610   0.96190016   -9447.0366   -10.140515    293.60493 
   12620   0.96214246   -9445.4879   -63.363214    296.95654 
   12630   0.96246229   -9443.9692   -46.077233    296.24727 
   12640   0.96283416   -9442.4692    108.29906    296.52566 
   12650   0.96307377   -9441.1386    328.94416    296.40961 
   12660   0.96293359   -9439.8366    403.42059    294.49826 
   12670   0.96233692   -9438.5888    134.16382    300.39306 
   12680   0.96154539   -9437.0003   -84.482282    300.81142 
   12690   0.96081902   -9435.2655   -123.93111    295.27404 
   12700   0.96022115   -9433.6026   -115.91962    293.81825 
   12710   0.95974833   -9431.8168   -131.94633    290.59629 
   12720   0.95944692   -9429.7394   -352.88941    297.71512 
   12730   0.95953876   -9427.4233   -395.74638    299.16142 
   12740   0.96010449   -9425.0829   -283.73273    295.68335 
   12750   0.96104144   -9423.1601   -191.57851    303.97913 
   12760   0.96220571   -9421.2403     133.5632      301.588 
   12770   0.96327085   -9419.5824    291.38851    299.13993 
   12780   0.96402928   -9418.1317    303.72312    302.27898 
   12790   0.96442505   -9416.6147    429.40067    298.82922 
   12800   0.96432535     -9415.48    475.64363     292.1141 
   12810   0.96368373   -9414.2882     234.9088    292.33979 
   12820   0.96275131   -9412.5652   -139.42796    299.04484 
   12830    0.9619279   -9410.2948   -270.29598    298.50199 
   12840   0.96139949   -9408.1487   -277.61713    301.11029 
   12850   0.96116524   -9405.9517   -76.215899    296.19973 
   12860   0.96104552   -9404.2223   -74.040036    301.04044 
   12870   0.96100559   -9402.1515   -88.759728    301.65629 
   12880   0.96108208   -9400.0555   -149.58526     302.6042 
   12890   0.96133875   -9398.3676   -190.80084    308.64856 
   12900   0.96180418   -9396.6625    15.489525    303.26152 
   12910   0.96228181   -9395.4718    159.97769    299.10874 
   12920   0.96258286   -9394.2629    280.97886    292.22556 
   12930   0.96258076   -9393.0468    207.98062    290.56618 
   12940   0.96233794   -9391.6378   -9.1108389    296.47579 
   12950   0.96208495   -9389.7847   -109.64311    297.14137 
   12960   0.96194159   -9387.6911   -37.105328    290.26208 
   12970   0.96185996   -9385.7189   -83.134092    293.10934 
   12980   0.96186035    -9383.323   -44.156538    293.43574 
   12990   0.96192324   -9380.8668   -51.312481    293.55738 
   13000   0.96206229   -9378.2502   -172.77864    300.64304 
   13010    0.9623952   -9375.4774   -131.47305    300.98389 
   13020   0.96289736   -9372.8112   -11.786784    297.96783 
   13030   0.96344925   -9370.1457    20.632691    300.73094 
   13040   0.96398276   -9367.4195    142.69595    303.03999 
   13050   0.96436293   -9365.1396    230.19516    306.95519 
   13060   0.96446672   -9362.9761    347.79421    303.17734 
   13070   0.96417014   -9361.2678    315.66115     303.5777 
   13080   0.96349211     -9359.82     108.2929    308.00646 
   13090    0.9626483   -9358.1185    -94.69302    306.92262 
   13100   0.96189292   -9356.4102   -273.23429    308.28629 
   13110   0.96142639   -9354.8953   -302.12511    308.39773 
   13120   0.96129945   -9353.7235   -186.63289    309.47533 
   13130    0.9613638    -9352.917    156.91657    305.55269 
   13140    0.9612604    -9352.697    334.25785    302.90498 
   13150   0.96077321   -9352.7582    228.33828    301.48393 
   13160   0.96000318   -9352.7581   -15.774034    302.89572 
   13170   0.95920956   -9352.5829   -142.56493    300.17043 
   13180   0.95855399   -9352.4016   -178.47272     295.3187 
   13190   0.95811562   -9352.1837   -390.94598    300.35152 
   13200   0.95812516   -9351.7673   -548.07709    310.48881 
   13210   0.95873983    -9351.854   -195.45861    303.66453 
   13220    0.9596319   -9352.5688    148.92094    296.22696 
   13230   0.96039843   -9353.4149    279.89772    297.80122 
   13240   0.96085626   -9354.1763    313.74965    298.07733 
   13250    0.9609749   -9355.1717     86.10571    301.96522 
   13260   0.96099915   -9355.9882   -219.99133    309.87583 
   13270   0.96125096   -9357.0663   -168.64877    306.62381 
   13280   0.96172297   -9358.5685   -30.449054    303.07973 
   13290   0.96225375   -9360.6231    68.903104    303.27913 
   13300   0.96273087   -9363.0654    25.800102    307.84127 
   13310    0.9631889   -9366.0311   -57.842976    311.27553 
   13320   0.96369833   -9369.6201    119.71969    305.89963 
   13330   0.96408871   -9373.7848    278.77809    300.88773 
   13340   0.96418207   -9378.5296    200.01703    300.27053 
   13350   0.96404704   -9383.4698   -14.567987     303.4327 
   13360   0.96391086   -9388.5973   -158.63516    307.14433 
   13370   0.96395019   -9394.5702   -177.61418    309.99972 
   13380   0.96417417   -9401.0322    67.129806    306.49717 
   13390   0.96432373   -9408.0848    344.76621    302.69482 
   13400   0.96408214   -9415.3998    396.79937    300.48244 
   13410   0.96338101   -9422.7615    169.46193    302.28119 
   13420   0.96244176   -9429.5831    17.072267    295.09489 
   13430   0.96147558   -9435.7887   -236.14453     295.9056 
   13440   0.96074924   -9441.1355   -385.71823    298.71697 
   13450   0.96044562     -9445.97   -317.66685    298.42244 
   13460   0.96050221   -9450.4691   -113.33892     296.0093 
   13470    0.9607132   -9454.8596   -37.027203     298.7557 
   13480   0.96096475   -9458.6287    95.125271    295.57843 
   13490   0.96111402   -9462.1461    204.91993     294.8754 
   13500   0.96101138   -9465.2553    350.49905    292.29788 
   13510   0.96049711   -9468.0755    366.96422    287.76979 
   13520   0.95955485   -9470.5422    84.077631    290.00808 
   13530   0.95847739   -9472.2875   -158.90947    290.05839 
   13540    0.9575529   -9473.3423   -286.99698    290.32006 
   13550     0.956936   -9473.9219   -256.28039    286.25583 
   13560   0.95663334    -9474.141    -333.9624     287.8151 
   13570   0.95671754   -9473.9458   -371.17126    286.70529 
   13580   0.95725783   -9473.7245   -387.66503    291.65229 
   13590   0.95824466   -9473.3894   -118.34721    293.22634 
   13600   0.95940274   -9473.0035    231.03736    285.99808 
   13610   0.96035556   -9472.6603    278.86011    289.41007 
   13620    0.9609779   -9471.8558    428.89421     285.5181 
   13630   0.96112243   -9470.9423      405.445    285.91585 
   13640   0.96079351   -9469.7266    182.16845    291.79078 
   13650   0.96022315   -9467.9819    36.890338    290.88557 
   13660   0.95959549    -9466.161    -109.5395    295.50903 
   13670   0.95905089   -9464.0484   -6.0840257    289.96304 
   13680    0.9585015   -9461.9185    119.61501     284.8381 
   13690   0.95782244   -9459.6297    -57.96018    288.26424 
   13700   0.95720395   -9456.7198   -385.38175    296.25462 
   13710    0.9569979   -9453.3846   -417.91623    300.13526 
   13720   0.95726089   -9450.3773    -118.9126    293.63289 
   13730   0.95770854     -9447.62   -12.742105    295.52363 
   13740   0.95818389   -9444.8081    29.694685     301.7294 
   13750   0.95862006   -9442.0167    204.77302    299.32171 
   13760     0.958835   -9439.6087    315.40664    294.57488 
   13770   0.95868824   -9437.2215    331.02801    287.61287 
   13780    0.9581618   -9434.7024    135.70384     290.2404 
   13790   0.95744493   -9431.8489   -79.306375    297.42276 
   13800   0.95677187   -9428.6649   -89.513283    293.15959 
   13810   0.95621275   -9425.4043   -255.60633    293.18135 
   13820    0.9559575   -9421.8999   -562.98431    306.20929 
   13830   0.95631035   -9418.3496   -337.13052    297.63171 
   13840   0.95711091   -9415.3781   -103.43132    292.95261 
   13850   0.95807664   -9412.5197    29.296955    299.25903 
   13860   0.95902709   -9409.6889    255.51318    295.66796 
   13870   0.95972711   -9407.0518    283.76179    299.30626 
   13880   0.96009891   -9404.4434    329.12985    299.54266 
   13890   0.96008814   -9402.1252    361.42239    296.31287 
   13900   0.95965333   -9399.9819    241.08705    298.01583 
   13910   0.95891197   -9397.7555    71.514918    303.10542 
   13920   0.95803969   -9395.6296    21.733482    302.83535 
   13930   0.95711169   -9393.7067   -36.187483     302.5867 
   13940   0.95619519   -9391.7624   -107.83025    299.29505 
   13950   0.95537318   -9389.8641   -119.56982    292.64727 
   13960   0.95468522   -9387.7989   -250.02075     292.9714 
   13970   0.95428481   -9385.6265   -444.66612    298.32184 
   13980   0.95437624    -9383.295   -387.99971    298.52598 
   13990   0.95493478   -9381.2183    -192.1881    296.29509 
   14000    0.9557503   -9379.2967    39.204309    294.75318 
   14010    0.9565611   -9377.3193    199.63022    292.28995 
   14020   0.95718336   -9375.5207    128.64775    300.53358 
   14030   0.95763988   -9373.5086      271.977    294.94594 
   14040   0.95780433   -9371.7197    261.91255    295.60337 
   14050   0.95765398   -9369.9028    195.74676    295.14242 
   14060   0.95727826    -9368.133   -24.929425    301.48893 
   14070   0.95688977   -9365.9969   -46.764225    301.17421 
   14080   0.95654627   -9364.0234    6.0072325    299.27313 
   14090   0.95618286   -9362.4152    41.543044    304.88195 
   14100   0.95573017   -9360.9154    245.57224     297.3201 
   14110   0.95499681   -9359.8376    182.19042    297.43204 
   14120   0.95402259   -9358.5926   -25.596171    296.86944 
   14130   0.95305857    -9357.129   -334.92646    300.95661 
   14140    0.9524403   -9355.3187   -400.38519    301.37853 
   14150   0.95227608    -9353.718   -298.18097     302.0864 
   14160   0.95245101   -9352.4545   -41.863091    299.82186 
   14170   0.95268528   -9351.2677    232.44444    291.65206 
   14180   0.95269302   -9350.5514    71.379705      303.155 
   14190   0.95257702    -9349.359    108.09385    300.06309 
   14200   0.95233765   -9348.5673    142.58428    298.26404 
   14210   0.95191856   -9347.6262    153.53583    296.79778 
   14220   0.95132436   -9346.5677   -43.897525    297.19022 
   14230   0.95076712   -9345.4233    -310.0549    306.00126 
   14240   0.95051147   -9344.0828   -135.14273    300.87135 
   14250    0.9504387   -9343.2075   -78.864251    299.88256 
   14260   0.95046466   -9342.3332   -121.44936    299.92221 
   14270   0.95064188   -9341.5318   -154.81486    301.62021 
   14280   0.95100168   -9340.8469   -67.873703    297.27681 
   14290   0.95147812   -9340.1902    -97.05066    296.11256 
   14300   0.95208841   -9339.5552    -169.9496    304.59521 
   14310   0.95288869   -9339.0248   -5.1929568    304.75344 
   14320    0.9537174   -9338.6211    193.39644    301.09425 
   14330   0.95436073   -9338.5819    211.84508    301.67949 
   14340   0.95477139   -9338.6301    169.66572    302.47103 
   14350   0.95498204   -9338.7371    176.12543    302.05305 
   14360   0.95498968   -9339.0208      119.122    304.48481 
   14370   0.95485069   -9339.5328    67.373056      304.043 
   14380   0.95461293   -9339.9893    130.72551    294.32884 
   14390   0.95425181   -9340.5643   -82.233002    297.33642 
   14400   0.95398025   -9340.9791   -364.94538    304.61868 
   14410   0.95412436   -9341.2989   -432.02142    304.31719 
   14420   0.95477521   -9341.9302   -222.44683    297.91362 
   14430    0.9557307   -9343.1339   -69.189045     300.7008 
   14440   0.95678132   -9344.4495    137.78923    299.49426 
   14450   0.95769696   -9346.1521    345.28693    294.01589 
   14460   0.95824985   -9348.0901    306.59801    296.10006 
   14470    0.9584548    -9349.935    105.50229    300.66571 
   14480   0.95853732   -9352.0055   -126.18697    303.85624 
   14490   0.95874823   -9354.4071   -128.65604    302.79103 
   14500   0.95910453   -9357.4355      33.8814    300.88384 
   14510   0.95943133   -9360.9101    204.69361     296.2908 
   14520   0.95953787   -9364.7191    213.20263    293.57189 
   14530   0.95940794   -9368.7161    49.659251    294.96345 
   14540   0.95921767   -9373.0083    -121.7395    298.44823 
   14550    0.9591396   -9377.5546   -29.046629    293.90936 
   14560   0.95909718   -9382.3648    64.380273    296.12941 
   14570   0.95897549   -9387.3918    95.557615    296.20418 
   14580   0.95874573   -9392.4618    25.457644    293.28369 
   14590   0.95848749   -9397.4996   -115.59149     295.4907 
   14600   0.95834829   -9402.5165   -158.44072    295.70718 
   14610   0.95839687   -9407.2556   -173.42703    296.36246 
   14620   0.95864505   -9412.2027   -97.002738    297.83061 
   14630    0.9590071   -9416.8623    119.44347    290.64857 
   14640   0.95927069   -9421.6123    85.596852    296.25924 
   14650    0.9594205   -9426.1859     97.52931    299.26512 
   14660   0.95944628   -9430.5403    235.59353    294.20948 
   14670   0.95920038   -9434.6749    275.67613    286.56284 
   14680   0.95866316   -9438.5498   -105.22639    293.90108 
   14690   0.95820237   -9441.7245   -338.05517    300.26406 
   14700   0.95810109   -9444.6853   -236.64029    296.19013 
   14710    0.9582859   -9447.5626   -88.778016    294.72474 
   14720   0.95859112   -9450.2523    -8.651008    295.61536 
   14730   0.95892381    -9452.905    4.2295558    298.39151 
   14740    0.9592685   -9455.4981   -12.621658    296.53596 
   14750   0.95965694   -9457.7744   -106.29688    297.67558 
   14760   0.96016452   -9460.0457     40.53638    294.19573 
   14770   0.96063696   -9461.9731    286.40579    288.08337 
   14780   0.96081034   -9464.0299    255.39206    290.83682 
   14790   0.96068228   -9465.6904    122.11237    293.13178 
   14800   0.96040913   -9467.0862   -90.614543    299.06886 
   14810   0.96019815   -9468.1161   -36.003162    294.57585 
   14820   0.96003628   -9469.3517   -10.124414    293.47714 
   14830   0.95987408   -9470.3935    26.506201    291.51335 
   14840   0.95967381   -9471.2045    68.516008     291.2922 
   14850   0.95938466   -9471.9868    62.236657    294.88867 
   14860   0.95899278   -9472.5836    139.27984    291.84073 
   14870   0.95843906   -9473.0366    54.015678    288.03807 
   14880   0.95782455   -9472.9938   -265.91043     290.2899 
   14890   0.95750039   -9472.5716   -563.22488    297.54518 
   14900    0.9578041   -9471.9232    -490.9673    296.18417 
   14910   0.95870551      -9471.4     -178.203    289.59533 
   14920   0.95988777   -9470.9276    4.5693096    290.05726 
   14930   0.96112258   -9470.3061    117.41448    291.71091 
   14940   0.96226818   -9469.5088    195.13281    295.95559 
   14950   0.96322199   -9468.7117    230.77321    298.04062 
   14960   0.96392977   -9467.7122    275.60787    290.28399 
   14970   0.96435382   -9466.6978    166.35606    292.92966 
   14980   0.96455657    -9465.229    273.80023    287.91202 
   14990   0.96445524   -9463.7666    251.31074    292.37995 
   15000   0.96402906   -9462.0993     253.3764    291.20498 
   15010   0.96330415   -9460.2569    75.610687    290.55763 
   15020   0.96246942   -9457.7716   -209.88329    293.14947 
   15030   0.96186125   -9454.8323     -489.556    300.57892 
   15040   0.96178083   -9451.6084   -404.94479    302.66138 
   15050   0.96216864   -9448.5497   -59.385071     293.8387 
   15060   0.96267949    -9445.931    46.982648    296.19198 
   15070   0.96313835   -9443.0529     216.7828    293.60003 
   15080   0.96337323   -9440.3898    220.63583     291.7591 
   15090   0.96335919   -9437.3617    100.07701    288.60746 
   15100   0.96323145   -9434.0157   -76.562694    295.28225 
   15110   0.96315196   -9430.1803    56.114032    291.84765 
   15120   0.96303681   -9426.4457    29.662779    289.64003 
   15130   0.96287749   -9422.5549    -27.34591    298.65982 
   15140   0.96270366    -9418.625     173.7543    297.85262 
   15150   0.96233969   -9414.8181    167.53883    298.62754 
   15160   0.96176893    -9411.093    76.388951    296.21311 
   15170   0.96108453    -9407.435    27.698174    296.51401 
   15180   0.96034502   -9403.8006   -32.799324    297.33827 
   15190    0.9596355   -9400.0703   -248.22163    302.23318 
   15200    0.9591755   -9396.3862   -279.49542    302.55551 
   15210   0.95903112   -9392.8857   -202.29572    304.13476 
   15220   0.95912249   -9389.9069   -74.047905    304.83694 
   15230   0.95929371   -9387.4566    190.34125    298.54213 
   15240   0.95926445   -9385.5105    302.01604    298.09525 
   15250   0.95887179   -9383.6331    324.55715    291.75291 
   15260   0.95812404   -9381.8019   -55.334015    298.76687 
   15270   0.95736614   -9379.6039   -140.21992    301.02257 
   15280   0.95673695   -9377.6638    -11.69468    297.62192 
   15290   0.95611415   -9376.1176    16.797486    296.84686 
   15300   0.95545872   -9374.5126    7.0599851    290.84131 
   15310   0.95480468    -9372.842   -190.14624    292.96493 
   15320    0.9543475   -9371.1229   -284.95273    297.13475 
   15330   0.95418414   -9369.2756   -93.873527    294.06626 
   15340   0.95414928    -9367.599   -60.762774    295.83545 
   15350   0.95420119   -9365.9208    -192.0693    303.83153 
   15360   0.95445246   -9364.2726   -46.978325     299.9472 
   15370   0.95478589   -9363.2353    61.983238    297.54281 
   15380   0.95507439   -9362.3542    2.3692513     300.4495 
   15390   0.95535068   -9361.4919    68.592595    299.20054 
   15400   0.95555419   -9360.7964    142.41373    298.40309 
   15410    0.9555997   -9360.3752    142.61261    302.48596 
   15420   0.95545504   -9359.9003    267.46407    298.27244 
   15430   0.95501033   -9359.7436    172.66626    300.27203 
   15440   0.95433099   -9359.6132    68.171055    300.51268 
   15450   0.95354524   -9359.3769   -21.400239    297.03018 
   15460   0.95276644   -9359.1159     -150.769    296.12919 
   15470   0.95214453   -9358.5724   -281.54405    300.34365 
   15480   0.95182642   -9358.0379   -255.07497      299.273 
   15490   0.95179715   -9357.6145   -119.74191    297.28351 
   15500   0.95192259   -9357.4535   -67.748934    298.88304 
   15510   0.95214328   -9357.1505   -89.275362    297.24309 
   15520   0.95249699   -9356.9074   -212.08014    302.24413 
   15530   0.95308994   -9356.8456   -91.728048    303.26419 
   15540    0.9538048   -9356.8177    181.66081    298.14148 
   15550   0.95435659   -9357.2097    224.12749    302.46374 
   15560   0.95463572   -9357.5281    354.24974     299.9767 
   15570   0.95450413   -9357.9059     417.9093    293.59631 
   15580   0.95389631   -9358.5896    156.08781    300.81685 
   15590   0.95305526   -9358.9639   -2.4398754    301.89636 
   15600    0.9521829   -9359.3385   -92.411064    299.41192 
   15610   0.95139395   -9359.6858   -177.20134    298.72092 
   15620   0.95079048   -9359.8736   -220.64538    296.37731 
   15630   0.95044954    -9359.971    -338.4848    299.00426 
   15640   0.95048301   -9359.8834   -266.98805    296.61539 
   15650     0.950845    -9360.023   -161.26161    293.88493 
   15660   0.95143013    -9360.134   -160.15846    298.08668 
   15670   0.95221659   -9360.1833   -68.896496    298.38199 
   15680   0.95312902   -9360.3353   -67.955161     298.7799 
   15690   0.95416251   -9360.5732   -136.79075     301.4115 
   15700   0.95539004   -9361.0859   -125.37182    307.38476 
   15710   0.95677654   -9361.8619    164.67787    305.24359 
   15720   0.95802297   -9362.9445    360.35167    306.11742 
   15730   0.95887874   -9364.3742    418.23128    310.04901 
   15740   0.95924783   -9366.0956    506.85473    299.26443 
   15750   0.95907387   -9368.1338    137.56923     301.7955 
   15760   0.95872568    -9369.919   -275.08846     310.7775 
   15770   0.95864809   -9371.7243   -235.51561    308.79081 
   15780   0.95885163   -9374.0982   -56.272298    303.98479 
   15790   0.95913231   -9376.8011    127.20669    297.68166 
   15800   0.95929711   -9379.6624    74.054353    301.33202 
   15810   0.95935841   -9382.6359    59.260885    302.54925 
   15820   0.95934684   -9385.8143    75.833356    302.01083 
   15830   0.95923914   -9389.2018    121.71692    299.66009 
   15840   0.95898599   -9392.6633    146.24844    295.33282 
   15850   0.95856899   -9396.3643   -42.672084    300.55329 
   15860   0.95817119   -9399.7947   -145.76325    301.36651 
   15870   0.95792472   -9403.2215   -104.03709     294.7327 
   15880   0.95781697   -9406.7079   -156.70541    292.84384 
   15890   0.95789585   -9409.9358   -224.57739    294.55543 
   15900   0.95822737    -9413.008   -106.54741    293.48486 
   15910   0.95870293   -9416.3638    24.516994    293.62917 
   15920    0.9591786   -9419.5373    67.026183     294.9216 
   15930   0.95959203   -9422.7119    68.296471    297.11642 
   15940   0.95993812   -9425.6775    35.924007    297.21246 
   15950    0.9602623   -9428.7683   -49.974668     296.8549 
   15960   0.96065699   -9431.4609   -76.778372    292.74302 
   15970   0.96117141   -9434.2388   -149.29886    299.61094 
   15980   0.96183655   -9436.9434    112.22387     301.6194 
   15990   0.96237808   -9440.0611    480.38943    297.61516 
   16000   0.96238588   -9443.1398     572.8331    289.41756 
   16010   0.96175202   -9446.1044    200.74631     291.7569 
   16020   0.96084781   -9448.5463   -215.04172    298.34103 
   16030   0.96013945   -9450.2378    -297.4976    292.02976 
   16040   0.95978187   -9451.8091   -371.88975    298.04738 
   16050   0.95983393   -9453.4687   -257.77261    299.80972 
   16060   0.96020456   -9455.0194   -133.88381    296.19539 
   16070   0.96076593   -9456.7403   -104.66645    297.41681 
   16080   0.96146739    -9458.282   -40.504647    297.46117 
   16090   0.96223233   -9459.7886    99.056101    296.84992 
   16100   0.96290485   -9461.3662    238.05318    296.09125 
   16110   0.96333077    -9462.925    200.87696    297.62409 
   16120    0.9635136   -9464.3246    217.32092    297.62712 
   16130   0.96342919   -9465.7226    310.74628     292.6749 
   16140   0.96299411   -9467.0068    196.36172    289.74952 
   16150   0.96231412   -9467.7302   0.52840729    288.53066 
   16160   0.96162602   -9468.0355   -295.09501    294.48619 
   16170   0.96124904   -9467.9039   -404.71689     297.3307 
   16180   0.96132871   -9467.5651   -280.92837    295.70446 
   16190    0.9617564   -9467.6406   -171.50339    301.79684 
   16200   0.96237457   -9467.7891    163.50008    296.42572 
   16210   0.96284785   -9468.1315    274.83511     293.0613 
   16220   0.96303519    -9468.418    103.31292    298.19609 
   16230   0.96307054   -9468.2718     162.0934    292.85743 
   16240   0.96293821    -9468.339    47.396259     297.9724 
   16250   0.96272243   -9468.1809    17.660002    298.83809 
   16260   0.96246742   -9468.1363    110.86451    294.35009 
   16270   0.96208881   -9468.1705    36.917303    297.09656 
   16280   0.96164977   -9467.9398   -20.439252    295.60449 
   16290    0.9612209   -9467.7501   -34.659692     295.3998 
   16300   0.96080965   -9467.5051    25.526755    289.89922 
   16310   0.96039949   -9466.9653    -210.6259    291.31934 
   16320   0.96020955   -9466.1331   -308.20577    292.98095 
   16330   0.96037263   -9465.2713   -214.40009    293.07034 
   16340   0.96079626   -9464.1919   -67.541316    290.52475 
   16350    0.9613362   -9463.3428   -78.188341    294.49424 
   16360   0.96197216   -9462.3465   -22.024542    297.51397 
   16370   0.96264797   -9461.5826    128.60049    294.50738 
   16380   0.96320306   -9460.7454    222.23297    292.38966 
   16390   0.96351764   -9459.9746    237.25331    295.23347 
   16400   0.96353584   -9459.0787     327.8262    289.35113 
   16410    0.9631988   -9458.2263    87.783941    294.66769 
   16420   0.96272675   -9456.9579   -92.501625    295.18308 
   16430   0.96235834   -9455.3623   -258.21444    296.73049 
   16440   0.96227176   -9453.7452   -273.28638    303.08404 
   16450   0.96247476   -9452.3669    32.460066    300.36158 
   16460    0.9626516   -9451.3542    302.23859    294.92148 
   16470   0.96251496   -9450.6221    182.29691    297.73007 
   16480   0.96215078   -9449.5248    3.4561725    297.45017 
   16490   0.96176137   -9448.4108   -42.258348    293.58491 
   16500   0.96140615   -9447.1804   -10.333784    290.16493 
   16510    0.9610602   -9445.7398   -39.409194    289.40139 
   16520   0.96074852   -9443.9712   -76.609556    293.11205 
   16530   0.96050131   -9442.2141    4.7549589    293.21873 
   16540   0.96024755   -9440.2919    8.1200351     295.9558 
   16550    0.9599757    -9438.312   -19.151255    295.96245 
   16560   0.95971957   -9436.3703   -42.355919    296.54297 
   16570   0.95949862   -9434.2719   -15.494326     296.9335 
   16580    0.9592857   -9432.1356    28.315222    296.05119 
   16590   0.95904025   -9429.9979    13.637754     295.1332 
   16600   0.95877039    -9427.808   -13.925564    298.11056 
   16610   0.95850258   -9425.4899   -3.2368413    291.52435 
   16620   0.95826805   -9423.1439   -252.54197    296.86302 
   16630   0.95830007   -9420.5775   -287.75477    299.26299 
   16640   0.95866182   -9418.0861   -75.849349    294.06091 
   16650   0.95914054   -9415.7697     79.57235    298.90828 
   16660   0.95951709   -9413.2606    362.56549    291.64847 
   16670   0.95952237   -9411.1051    203.73621    296.47596 
   16680   0.95928771   -9408.4869   -129.29755    301.34904 
   16690   0.95919141   -9405.7729   -322.67375    301.03578 
   16700   0.95945181   -9403.0001   -172.15005    296.85011 
   16710   0.95993324   -9400.5953    51.653046    294.69409 
   16720   0.96038817   -9398.3678    100.37755    301.08271 
   16730   0.96071504    -9396.014    286.90967    299.65692 
   16740   0.96071033   -9393.8648    477.03279    292.56606 
   16750   0.96015963   -9392.1439    365.26059    294.22394 
   16760   0.95914113   -9390.2892    191.34716    297.79217 
   16770   0.95783485   -9388.0783    136.22285    293.38067 
   16780   0.95634484   -9385.8602   -113.82261    293.74347 
   16790   0.95494226   -9383.0648   -391.61075    298.67591 
   16800   0.95394738    -9379.819   -479.24485    296.18556 
   16810   0.95351814   -9376.5592   -620.23241    299.79933 
   16820   0.95378662    -9373.503   -434.83503    300.14773 
   16830   0.95458427   -9370.8633   -97.363489    296.63852 
   16840   0.95554026   -9368.4752    83.783469    299.84558 
   16850   0.95644619   -9366.3096    40.213004    306.25609 
   16860   0.95732446   -9364.0783    34.151432    305.01488 
   16870   0.95818622   -9362.3004     108.7427    302.16246 
   16880   0.95895357   -9360.5312    138.44918    298.82367 
   16890   0.95959645   -9359.0191    44.800177    303.07427 
   16900   0.96017455   -9357.6085    155.00005    303.21003 
   16910   0.96058716   -9356.5778    243.02279    305.16071 
   16920   0.96070823   -9355.7104    371.31893    302.96414 
   16930   0.96040404   -9355.1874    308.51591    300.85602 
   16940   0.95974357    -9354.568     1.387315    300.28594 
   16950   0.95905689   -9353.8513   -261.02961    304.44155 
   16960   0.95862616   -9353.1494   -179.11643    306.13596 
   16970    0.9583869   -9352.7774    18.083146    301.34542 
   16980   0.95815668   -9352.7366   -83.033813    307.86742 
   16990   0.95797596   -9352.7045    92.456994    301.73958 
   17000   0.95770989   -9353.0894    67.503495     302.4673 
   17010   0.95735982   -9353.5736   -81.031925    304.67513 
   17020    0.9570937   -9353.9617   -142.86973      300.537 
   17030   0.95699656   -9354.6802    -221.9746    309.00226 
   17040   0.95712039   -9355.2984    3.8991578    301.40832 
   17050   0.95728094   -9356.2979    43.630078    300.10558 
   17060   0.95738012   -9357.4449    138.40028     298.3685 
   17070   0.95733599   -9358.7242    113.80686    299.11089 
   17080   0.95715377   -9360.1792   -6.7818036    305.04945 
   17090   0.95694294   -9361.7834    101.96478    300.74916 
   17100   0.95661293   -9363.4139    156.30014    294.33243 
   17110   0.95612871    -9365.137   -181.36968      302.234 
   17120    0.9558232   -9366.6922   -379.94727    307.68715 
   17130   0.95593851   -9368.4216   -265.83118    303.42493 
   17140   0.95638869   -9370.6628   -136.18123    303.12486 
   17150   0.95699958   -9373.1236    141.98274    298.82026 
   17160    0.9574746   -9375.9941    334.02218    295.32479 
   17170   0.95759915   -9378.8032    144.79257    297.27628 
   17180   0.95755631   -9381.7611   -104.20137    303.70026 
   17190   0.95758393   -9384.6224    58.775827    298.04218 
   17200   0.95756549   -9388.0764    80.361316    300.03586 
   17210   0.95744359   -9391.6613    81.460547    299.15698 
   17220   0.95722359   -9395.5895    45.637349    298.83215 
   17230   0.95694228   -9399.7653   0.35918308     297.8936 
   17240   0.95665365   -9404.1302    -89.70073    295.43398 
   17250   0.95647132   -9408.6265   -242.91287      295.823 
   17260   0.95656326    -9413.162    -286.8447    297.82611 
   17270   0.95699617   -9417.9062   -184.18252    293.55284 
   17280    0.9576826   -9423.0945   -148.21232    294.39829 
   17290   0.95856838   -9428.4112   -89.133598    294.35932 
   17300   0.95960026   -9433.8729   -85.543744    296.09868 
   17310   0.96076081   -9439.5528    2.5724116    295.10677 
   17320   0.96195516   -9445.1852    139.15432    291.46087 
   17330   0.96304079   -9450.9814     105.5557     294.3308 
   17340   0.96402473   -9456.6236    66.332752    298.99641 
   17350   0.96495497    -9462.322    35.579152    298.89205 
   17360   0.96587158   -9467.8756   -38.586826    301.69537 
   17370   0.96683922   -9473.3846    65.189215    300.39582 
   17380   0.96775162   -9478.5362    282.27777    295.83297 
   17390   0.96835586   -9483.5406     426.5416    293.87956 
   17400   0.96847327   -9488.0775    422.40865     291.4832 
   17410   0.96810076   -9492.0079    236.65272    291.10613 
   17420   0.96743648   -9495.2652   -26.906633    296.23999 
   17430   0.96675755    -9497.903   -99.806146    295.05018 
   17440   0.96618367   -9500.0026   -114.25828    290.09443 
   17450   0.96574385   -9501.3678   -141.48422    288.09499 
   17460   0.96547035   -9502.4127   -203.26185    292.05338 
   17470   0.96542382   -9503.0494    -203.7909    295.01059 
   17480   0.96560972   -9503.7385   -109.35782     296.0052 
   17490   0.96592245   -9504.2067    58.067955     295.4389 
   17500   0.96617469   -9504.6799    231.87662    293.56308 
   17510   0.96615504   -9505.2532    359.28918    292.53607 
   17520   0.96572132   -9505.6928    277.18077    291.45903 
   17530   0.96496332   -9505.9355   -28.323479    292.57797 
   17540   0.96420375   -9505.6411   -235.20302    296.07932 
   17550   0.96368304   -9504.8781   -227.02267    292.56108 
   17560   0.96344163   -9504.2546   -337.90511    296.71855 
   17570   0.96358024   -9503.5394   -280.26682    297.53112 
   17580   0.96405078   -9502.8252   -74.426226    295.11047 
   17590   0.96463333   -9502.4449    84.708067    297.56276 
   17600   0.96512437   -9501.8285    317.54649    287.02501 
   17610   0.96529304   -9501.4414     233.1395    289.60991 
   17620   0.96516395   -9500.6445    240.30133    291.20849 
   17630   0.96472915   -9499.8434    355.70842    285.55188 
   17640    0.9638807   -9498.7999    206.33965    285.57905 
   17650   0.96276244   -9497.3364   -78.420504    289.29313 
   17660   0.96168474   -9495.1207    -218.3106    287.67902 
   17670   0.96084753     -9492.46   -378.59087     288.1246 
   17680   0.96043841   -9489.4707   -468.88973    290.64509 
   17690   0.96056408   -9486.3874   -383.76021    291.53052 
   17700   0.96116204   -9483.3284   -325.24268    296.85954 
   17710   0.96215956   -9480.2853   -150.60631    298.27473 
   17720   0.96336581   -9477.3864    96.640038    295.26204 
   17730   0.96451126   -9474.6746    215.19787    296.20155 
   17740   0.96542862   -9471.9343    325.20749    295.33151 
   17750   0.96599824    -9469.264    337.18794    293.19122 
   17760   0.96619442   -9466.5669    186.70484     301.9291 
   17770   0.96613148   -9463.7532     295.8297    297.94807 
   17780   0.96572881   -9461.2752    284.25336     293.8218 
   17790   0.96498304   -9458.6632    118.07433    293.04438 
   17800   0.96407666   -9455.7679   -96.909843    293.89542 
   17810   0.96325348    -9452.845   -285.40219    302.64983 
   17820   0.96270694   -9449.4763   -125.02441    294.35161 
   17830   0.96233232   -9446.5992   -195.82759    295.28382 
   17840   0.96217297   -9443.5645   -229.23124    297.40486 
   17850   0.96226408   -9440.5336   -42.814601     294.2499 
   17860   0.96243406   -9437.6021   -14.746105    298.44247 
   17870   0.96261085   -9434.7881    99.960552    298.95704 
   17880   0.96266193   -9432.0904    328.38089    290.86797 
   17890   0.96235405   -9429.6104    242.98951    290.43344 
   17900   0.96176274   -9426.9116   -63.716674    299.64773 
   17910   0.96117977   -9423.8505    17.309671    294.84012 
   17920   0.96057828   -9421.0983     16.14816    295.29071 
   17930   0.95994998    -9418.132   -149.55475    297.21067 
   17940   0.95947085   -9415.0619   -243.87795    298.82475 
   17950   0.95924751    -9412.106   -133.26843    299.48489 
   17960   0.95916745   -9409.4188    112.40617    291.35468 
   17970   0.95899388   -9406.9534    16.032152    293.78014 
   17980   0.95879309   -9403.9879   -141.60147    296.29803 
   17990   0.95875016   -9401.1792   -223.52548    300.97641 
   18000   0.95894769   -9398.3134   -29.866746    293.25785 
   18010   0.95922315   -9395.8082   -25.910756    296.70851 
   18020   0.95953951   -9393.1589   -87.651861    304.05966 
   18030   0.95995544   -9390.7224    -23.36798    302.12412 
   18040   0.96041964   -9388.6758    34.757987    303.44326 
   18050   0.96083957   -9386.9031    230.43943    302.92482 
   18060   0.96099048   -9385.3554    429.20739    298.10269 
   18070   0.96067335   -9384.2176    219.15591    305.21413 
   18080   0.96005485   -9382.9232    150.77228     302.3028 
   18090   0.95923304   -9382.0161    148.28151    299.98955 
   18100   0.95821095   -9381.1388     65.39537    300.19145 
   18110   0.95708959   -9380.2535   -145.22567    301.26705 
   18120   0.95610303   -9379.1598    -316.2483    304.25469 
   18130   0.95544071   -9378.0962   -246.64883     300.2982 
   18140   0.95505844    -9377.202   -118.49122    294.92274 
   18150   0.95482368   -9376.4738   -114.84924    298.14485 
   18160   0.95470866   -9375.7143   -58.401896    301.37794 
   18170   0.95465053   -9375.0268    63.011793    297.87644 
   18180   0.95453114   -9374.5964    87.533754    296.87304 
   18190   0.95430145   -9374.0306    106.75382    293.85126 
   18200   0.95396324   -9373.3106   -58.223419    298.32321 
   18210   0.95368054    -9372.401   -219.70069    299.84894 
   18220   0.95364562   -9371.2413   -292.52876    300.75181 
   18230   0.95395271    -9370.418   -255.79559    301.54162 
   18240   0.95457764    -9369.874   -233.24414    304.90474 
   18250   0.95550604   -9369.5629   -227.33943    309.59707 
   18260   0.95671848   -9369.5365   -28.087071    303.60177 
   18270    0.9580195   -9369.9009    106.42031    304.42978 
   18280   0.95921391   -9370.5975    277.34217    306.99831 
   18290   0.96009634   -9371.3463    484.09579    302.15765 
   18300   0.96043784   -9372.6329    509.13541    300.40866 
   18310   0.96018761   -9374.0611    398.65734    298.85789 
   18320   0.95945482   -9375.4503    206.00512    298.21125 
   18330   0.95846565     -9376.81   -72.702545    301.97176 
   18340   0.95752617    -9377.853   -224.62156    299.18408 
   18350   0.95684055      -9378.7   -337.45273    297.88351 
   18360   0.95653227   -9379.6206   -314.36643    299.11593 
   18370   0.95657769   -9380.7873   -113.94352    295.64675 
   18380   0.95677585   -9382.2079   -13.233389      295.818 
   18390    0.9570097   -9383.6336   -72.930246    299.89874 
   18400   0.95732255   -9385.2102   -37.544354    300.56125 
   18410   0.95768847   -9386.8366    36.620627     297.0768 
   18420   0.95804391   -9388.7882   -52.708797    300.80377 
   18430   0.95845907   -9390.8161   -53.949541    302.43281 
   18440   0.95893795     -9393.29     67.83286    303.94378 
   18450   0.95932752   -9396.2769    328.72014    301.92939 
   18460   0.95934078   -9399.7948    500.05878      294.847 
   18470   0.95879671   -9403.6435    242.44635    295.11166 
   18480   0.95795117   -9407.6036   -120.43566    300.22773 
   18490   0.95718356   -9411.3435   -129.79651    297.62415 
   18500   0.95654882   -9415.6951   -78.001671    299.05535 
   18510    0.9559743   -9420.2733    77.144768     292.1914 
   18520   0.95531756   -9424.8056    76.471913    283.92599 
   18530   0.95457176   -9429.2769   -100.22443    284.61703 
   18540   0.95391592    -9433.278   -248.15465    289.86827 
   18550   0.95352725   -9437.4081   -295.55046    293.67434 
   18560   0.95346814   -9441.4683   -215.93828    291.04893 
   18570   0.95369146   -9445.7403   -275.92427    296.44954 
   18580   0.95421984   -9449.9551   -58.430763    290.44774 
   18590   0.95484583   -9454.0849    146.58823    286.92305 
   18600   0.95532473   -9458.0752    230.82394    286.86211 
   18610   0.95554451   -9461.8535    240.39098    288.44487 
   18620   0.95548492   -9465.4383    219.53079    287.41016 
   18630   0.95517617     -9468.71     38.40794    290.65084 
   18640   0.95479506   -9471.6905   -55.260319    292.59658 
   18650   0.95444723   -9474.3525      42.9516    290.74608 
   18660   0.95403889   -9476.9241    112.32162    286.24874 
   18670   0.95350401   -9479.1307   -8.4849189    283.44367 
   18680   0.95297352   -9480.8565   -250.65653    288.42217 
   18690    0.9527043   -9481.8012   -309.43529    289.75786 
   18700   0.95279225   -9482.5292   -223.63798    287.32445 
   18710   0.95316344   -9483.4549   -174.61606    291.69229 
   18720   0.95373878   -9484.0151    7.1172267    286.99815 
   18730   0.95435174   -9484.4836    68.395097    284.37444 
   18740   0.95491206   -9484.4752    77.171625    287.09681 
   18750   0.95538384   -9484.2227    220.26204    283.31723 
   18760   0.95561842   -9483.5662    285.37682    280.60069 
   18770   0.95553122   -9482.4892    176.99776    281.53096 
   18780   0.95524061   -9480.8855   -87.745919    287.25779 
   18790   0.95503827   -9478.5511   -318.21339    294.44907 
   18800   0.95518035   -9475.8417   -236.28301    289.33016 
   18810   0.95562341   -9473.1373   -106.53139    290.91575 
   18820   0.95619646     -9470.22    128.30826    288.66019 
   18830   0.95666126   -9467.0523    175.94396    289.72185 
   18840   0.95693338   -9463.6654    136.59596    294.69324 
   18850   0.95704992   -9459.8759    101.84346     294.6652 
   18860   0.95706111   -9455.9577   -13.786362    292.46781 
   18870   0.95709315    -9451.712   -174.68106    295.24934 
   18880    0.9573319   -9447.3613   -283.01624    300.26786 
   18890   0.95790381   -9442.7222   -176.01119    295.74139 
   18900    0.9587345   -9438.5108   -147.43608      301.453 
   18910   0.95973685   -9434.3371    135.62876    303.84551 
   18920    0.9606171   -9430.5025    408.89901     301.3465 
   18930   0.96106046   -9427.0941    425.36897    298.50865 
   18940   0.96102217   -9423.7921    296.70422    295.31108 
   18950   0.96063233   -9420.6457    86.269886    300.64769 
   18960   0.96010249   -9417.5341    3.5266363    304.62746 
   18970   0.95953015   -9414.6418    90.128674    296.86924 
   18980   0.95885809   -9411.9963   0.76189452     295.5582 
   18990   0.95816243    -9409.407   -77.554698    295.85936 
   19000   0.95752736   -9406.9661   -76.874101    295.25457 
   19010   0.95695437   -9404.5612    31.240427    290.84878 
   19020   0.95633838   -9402.3661    38.360194    289.72076 
   19030   0.95567927   -9400.2091   -173.72993    295.49419 
   19040   0.95521116   -9397.7291   -400.35721    298.69504 
   19050   0.95519366   -9395.2992   -429.75563    299.51868 
   19060   0.95566961   -9393.3851   -196.04036    297.55892 
   19070   0.95640011   -9391.8839    36.152446    299.62111 
   19080   0.95711165   -9390.6384    193.91419    298.38354 
   19090   0.95762462     -9389.64    228.28443    300.71323 
   19100   0.95786637    -9388.854     332.9147    294.92574 
   19110   0.95773987   -9388.3785    277.21918    293.16227 
   19120   0.95727494   -9387.8331    175.28207    296.10669 
   19130   0.95657381   -9387.1715    116.89695    296.64628 
   19140   0.95571698   -9386.5107    14.218613    296.66508 
   19150   0.95481401   -9385.7602   -69.992131    293.59282 
   19160   0.95397907   -9384.7311   -184.79863    292.23839 
   19170   0.95334981   -9383.6248    -340.1592    300.22681 
   19180   0.95307664   -9382.4291   -169.86985     297.2585 
   19190    0.9530062   -9381.4933    15.136145    297.15907 
   19200   0.95292678   -9380.6892    60.105017    292.40658 
   19210   0.95281494    -9379.761   -221.44902     295.3325 
   19220    0.9529504   -9378.7309   -383.64001    298.75549 
   19230   0.95354348   -9377.7157    -367.5315    300.83111 
   19240   0.95458349   -9376.9588   -178.23934    301.15008 
   19250   0.95586408   -9376.2994     70.42537    299.71912 
   19260   0.95711159   -9376.1115    154.66317    303.22967 
   19270   0.95820441   -9375.7617     191.4492    300.20323 
   19280   0.95910325   -9375.6212     188.7002    299.91519 
   19290   0.95979909   -9375.4925    180.89925    299.42966 
   19300   0.96030445   -9375.3189    95.330764    301.02006 
   19310   0.96070066    -9375.302    55.534447    302.67144 
   19320   0.96102592   -9375.3611    134.21872    301.28728 
   19330   0.96120687   -9375.7277    151.96716    303.48566 
   19340   0.96121101   -9376.1029    104.98812    305.21353 
   19350   0.96108481   -9376.5559    60.032346     302.6734 
   19360    0.9608937   -9377.1563   -21.015507    302.10758 
   19370   0.96071902   -9377.8735   -54.725689    302.56576 
   19380   0.96059229   -9378.6686    3.8004729    304.57418 
   19390   0.96044532   -9379.8803    128.11081    302.12743 
   19400   0.96015873   -9381.3223    93.150535    301.37496 
   19410   0.95974583    -9382.758    40.742121    300.51292 
   19420    0.9592747   -9384.2487   -58.588256    301.97334 
   19430   0.95885874   -9385.8077   -155.97908     303.0459 
   19440   0.95860075   -9387.4977   -59.619609    298.73281 
   19450   0.95840602   -9389.2037     53.25104    295.07587 
   19460   0.95816612   -9391.1958   -69.674438    302.57346 
   19470   0.95798926   -9392.9524   -168.65935    304.63834 
   19480   0.95799246   -9394.9838   -100.12856    299.71157 
   19490   0.95812521   -9397.1514   -34.759395    295.71398 
   19500   0.95833039   -9399.3376   -154.81115    300.66082 
   19510   0.95870538   -9401.6087    -80.97299    298.43349 
   19520   0.95918988   -9403.9799    117.09876    295.17186 
   19530   0.95955124   -9406.6154     274.7622    300.52047 
   19540   0.95959183   -9409.2625    379.55198    298.92109 
   19550    0.9591845   -9412.2127    379.34048     298.3188 
   19560   0.95828792    -9415.325    417.86641    291.63412 
   19570   0.95689666   -9418.5492    68.540948     292.9943 
   19580   0.95536275   -9421.0139   -318.42483    297.01985 
   19590   0.95413189   -9422.9446   -450.68397    296.90675 
   19600   0.95339711   -9424.7816   -476.46366    297.24701 
   19610   0.95320867    -9426.746     -399.762    297.44089 
   19620   0.95348596   -9428.7998   -186.87513    294.77379 
   19630   0.95400372    -9430.933    25.666429    287.27259 
   19640   0.95453919   -9433.0168     34.73056    289.49627 
   19650   0.95505493   -9434.8593   -16.758683    293.88769 
   19660    0.9556037   -9436.4724   -17.692769    293.55263 
   19670   0.95620197   -9438.1344   -47.310601    297.34305 
   19680   0.95685931   -9439.7743    84.621861    294.79356 
   19690   0.95744794   -9441.2766     170.0056    294.03281 
   19700   0.95786383   -9442.8707    93.519071    299.09025 
   19710   0.95817307   -9444.4655    71.826115    295.85208 
   19720   0.95840385   -9446.1231    121.06374    293.36968 
   19730     0.958487   -9447.6877    234.84583    289.56318 
   19740   0.95830421   -9449.4553    222.17444    294.42529 
   19750   0.95783228   -9450.6209    243.56345    285.20129 
   19760   0.95710861   -9451.8603    -171.6598    294.99091 
   19770   0.95651446    -9452.492    -283.1885    296.17881 
   19780   0.95623886    -9453.082   -271.74275    293.09141 
   19790    0.9562851   -9453.5514   -269.59588    294.85202 
   19800   0.95664558   -9453.9482   -131.34314     293.0036 
   19810   0.95719533   -9454.3751   -94.760174    296.07906 
   19820   0.95787553   -9454.8922   -17.516614    296.12836 
   19830   0.95859968   -9455.3823    116.93592    296.08562 
   19840   0.95920838    -9455.905    236.35796    295.61763 
   19850   0.95957235   -9456.6355    160.32401    298.97939 
   19860   0.95975407   -9457.2639    44.199508    299.82097 
   19870   0.95987935    -9457.988     65.79387    299.43165 
   19880   0.95990945   -9458.7817    245.87765    296.35277 
   19890   0.95965361   -9459.8535      310.793    295.29992 
   19900   0.95901891   -9461.1084    273.62605    296.70706 
   19910   0.95802021   -9462.3868    294.43541    291.06885 
   19920   0.95667066   -9463.7897    41.477416    293.48641 
   19930   0.95522089   -9464.5241   -165.08391    290.18353 
   19940   0.95394038   -9464.8202   -367.04643    289.33044 
   19950   0.95306205   -9464.5827    -503.8061    290.72873 
   19960    0.9527651    -9463.915   -561.90822    292.53921 
   19970   0.95312313   -9463.4493   -448.20162    296.86341 
   19980   0.95400936   -9463.2284   -146.31091    296.44237 
   19990   0.95509661   -9463.2487    158.53195    295.70351 
   20000   0.95601647   -9462.9973    485.86882    287.83167 
   20010   0.95642323   -9462.8606     411.7104    289.57305 
   20020   0.95634961    -9462.132    179.43075    291.61457 
   20030   0.95605761   -9461.0398   -64.703837    296.16362 
   20040   0.95580732   -9459.5698   -85.005744     297.6981 
   20050   0.95564308   -9457.8508    5.6562103    292.72671 
   20060   0.95549601    -9456.056   -98.615306    294.38286 
   20070   0.95545785   -9454.0004   -174.65923    299.59062 
   20080    0.9556065   -9451.8112   -41.954369    298.12844 
   20090   0.95581607   -9449.7851    79.819131    296.16703 
   20100   0.95594382   -9447.7027    142.06901    291.90217 
   20110   0.95592501   -9445.4897    44.736059    292.78712 
   20120   0.95584008   -9442.7597    19.321105    289.39498 
   20130   0.95574211   -9439.8091   -55.735126    287.85106 
   20140    0.9557188   -9436.4873   -209.45769    295.94313 
   20150   0.95592012   -9432.5836   -145.88843     294.1688 
   20160   0.95631241   -9428.6721    -70.50762    290.09669 
   20170   0.95681608   -9424.7101   -107.45595    294.87134 
   20180   0.95744639   -9420.5721   -32.359454    297.88447 
   20190   0.95812221   -9416.4914    165.67157    299.17378 
   20200   0.95861344   -9412.5231    392.39926    297.75078 
   20210   0.95866471   -9408.8274    437.17678     298.8455 
   20220   0.95818462   -9405.3991    434.56278    294.93025 
   20230   0.95717604   -9402.0776    340.18354    288.62525 
   20240    0.9557633   -9398.7185   -37.511288    290.63764 
   20250    0.9543536   -9394.4136   -396.34843    293.00586 
   20260   0.95336819   -9389.6927   -499.30033    289.62614 
   20270   0.95295913   -9385.0136   -509.23008    292.60422 
   20280   0.95313696   -9380.4655   -382.35969    293.64314 
   20290   0.95377441   -9376.0818   -175.19739    295.67778 
   20300   0.95463237   -9371.8846    112.25548    290.73426 
   20310   0.95541676   -9367.9954    124.54285    291.47747 
   20320   0.95607385   -9363.9957    45.588249    297.19822 
   20330    0.9566627   -9360.1207     192.0739    296.14536 
   20340   0.95704721    -9356.464    289.84747    291.51401 
   20350   0.95714232    -9353.005    6.0588903    298.41022 
   20360   0.95720357   -9349.4838    -97.06307    305.42695 
   20370   0.95733875   -9346.0916    191.95599    296.50637 
   20380   0.95728855   -9343.4525    165.01249    300.66888 
   20390   0.95703017   -9340.9203    81.511053      301.331 
   20400   0.95666508   -9338.4324    1.8139207    297.91176 
   20410   0.95630898    -9336.109   -241.00346    301.56157 
   20420   0.95621624   -9333.6538   -358.73996    307.36662 
   20430   0.95650673   -9331.5006   -38.559752     301.8793 
   20440   0.95688641    -9329.793    108.78566    299.97213 
   20450   0.95717386   -9328.6295   -15.504195    307.23072 
   20460   0.95746888   -9327.3188    3.7638156    306.44044 
   20470   0.95776483   -9326.4455    95.943977     307.5195 
   20480   0.95793933   -9325.9732    306.87012     302.9409 
   20490   0.95777086   -9326.0345    324.21537    303.12701 
   20500   0.95720712   -9326.2234    248.79449    301.93912 
   20510   0.95632437   -9326.3148    116.92287    296.92228 
   20520   0.95528826   -9326.4948   -194.39942    302.20477 
   20530   0.95441697   -9325.9702   -270.24246     297.1772 
   20540   0.95386229   -9325.5917   -381.96109    298.11601 
   20550   0.95373971   -9325.2676   -424.23033    304.02594 
   20560   0.95411044   -9324.8924   -316.87435    303.91605 
   20570    0.9548871   -9325.2383   -263.59847      309.684 
   20580    0.9559845   -9325.9711    10.429153    308.14499 
   20590    0.9571063   -9327.0209    380.71095     302.6458 
   20600   0.95783877   -9328.4832    525.07213    302.81111 
   20610   0.95798766   -9330.0234    418.04358    303.33411 
   20620   0.95763878   -9331.7435     223.1739    303.14361 
   20630   0.95698874   -9333.7054    148.00902    298.88744 
   20640   0.95613596   -9335.6198    117.67709    293.76234 
   20650   0.95513216   -9337.3532   -77.314443    297.01901 
   20660    0.9541828   -9338.7447   -285.58476    301.22537 
   20670   0.95352004   -9340.0849   -287.78538    300.66881 
   20680   0.95317571   -9341.6152   -184.71027    297.23212 
   20690   0.95306944   -9343.3466   -259.31733    300.37265 
   20700   0.95326879   -9344.8635   -288.75453    298.45403 
   20710   0.95382297   -9346.6725   -238.30536    299.93306 
   20720   0.95466872   -9348.9769   -60.344614    307.05154 
   20730   0.95558998   -9351.2986    315.89217    299.98117 
   20740   0.95619691   -9354.0669    394.26651    299.98192 
   20750   0.95636778    -9356.857    198.47698    303.66214 
   20760   0.95630335   -9359.8893    -16.68701    308.84189 
   20770   0.95621903   -9363.0588    84.577864    305.65146 
   20780   0.95603662   -9366.8222    155.44183    302.82237 
   20790   0.95567046   -9370.5905    78.191529    299.16778 
   20800   0.95521256   -9374.3227   -101.88387    300.12568 
   20810    0.9548556   -9378.1564    -214.2001    300.61895 
   20820   0.95473884   -9381.9221   -208.55446    298.59508 
   20830   0.95487164   -9385.7921   -174.83995    300.71131 
   20840   0.95521103   -9389.6533    -90.50289    300.71601 
   20850   0.95568944   -9393.6588   -132.60315    305.34437 
   20860   0.95631901   -9397.8808   -8.1327478    301.51813 
   20870   0.95698696   -9402.0769    133.52147    295.00722 
   20880   0.95753169   -9406.2103    143.79931    297.07513 
   20890   0.95791423   -9410.1437    118.67083    300.74492 
   20900   0.95815373   -9413.8162    181.63169    297.39304 
   20910    0.9581755    -9417.455    301.70481    292.56519 
   20920   0.95785887   -9421.1099    190.70332    299.83108 
   20930   0.95727849   -9424.2666    153.55078    295.78837 
   20940   0.95652233   -9427.2618   -34.204288    295.51631 
   20950   0.95577872   -9429.5318   -183.76763    293.13346 
   20960   0.95524351   -9431.5321   -337.18461     292.8733 
   20970    0.9551029   -9433.1444   -473.22718     297.1015 
   20980   0.95549374    -9434.469   -285.68058    290.83245 
   20990   0.95625901   -9435.8338    -181.8224    292.74385 
   21000   0.95727064   -9437.0706   -218.35247    301.42396 
   21010   0.95857259   -9438.4047   -200.14674    304.21325 
   21020    0.9601352   -9439.8378    14.878895    298.66314 
   21030   0.96173662   -9441.2964    164.91028    294.54003 
   21040   0.96318407   -9442.8091    231.57347    300.06257 
   21050   0.96435118   -9444.1118    486.90191    300.12911 
   21060   0.96496922   -9445.6054    610.58304    299.69452 
   21070   0.96488474   -9447.2517    478.88984    298.16885 
   21080   0.96423931   -9448.7582    185.24297    298.89067 
   21090   0.96333756   -9449.8852    56.917972    296.36135 
   21100   0.96235273   -9450.8812   -50.836654    296.30814 
   21110   0.96141013   -9451.8505   -181.04649    302.68174 
   21120   0.96063911   -9452.3789   -100.78435    296.23983 
   21130   0.95999373   -9453.0703   -99.520972    293.07141 
   21140   0.95946298   -9453.6434   -143.20929    295.46599 
   21150   0.95908128   -9454.0351     -95.9755    295.92874 
   21160   0.95879755   -9454.3054    25.552886    291.23935 
   21170   0.95850071   -9454.5664   -42.685465    293.56949 
   21180   0.95823232   -9454.4275   -34.933119    290.13826 
   21190   0.95802044   -9454.1508   -117.30878    287.78442 
   21200   0.95796302    -9453.655   -323.09571    294.88884 
   21210   0.95825861   -9452.7582   -264.62481    295.07336 
   21220   0.95888998   -9452.1314   -177.24791    300.61916 
   21230   0.95972499   -9451.5784    98.070065    300.79102 
   21240    0.9604643   -9451.2493    391.10916    294.52102 
   21250   0.96077344   -9451.0905    493.21035    291.55807 
   21260    0.9605066   -9450.8604    451.26956    289.96759 
   21270   0.95969762   -9450.5817    294.67582    289.02844 
   21280   0.95852466   -9449.8801    10.738122    289.79576 
   21290   0.95730924   -9448.4497   -332.95926    294.60008 
   21300   0.95644331   -9446.6685   -555.33854    301.70939 
   21310   0.95617801   -9444.5671   -371.96757    293.93494 
   21320   0.95636944   -9442.8963   -175.12249    290.55381 
   21330   0.95679037   -9441.3393   -93.160513    292.63699 
   21340   0.95733995   -9439.5732   -71.950273    293.34114 
   21350   0.95800861   -9437.7002   -106.72885    294.40166 
   21360   0.95882116   -9435.8154    -36.22707    293.79839 
   21370   0.95970153   -9433.8306    104.88518    295.11443 
   21380   0.96048535   -9431.8959     216.8074    297.46577 
   21390    0.9610428   -9429.7554    185.31648     299.8599 
   21400    0.9613952    -9427.854    128.21813     302.7473 
   21410   0.96159203   -9426.0166    171.09956    301.73109 
   21420   0.96160589   -9424.4654    91.915707    303.70902 
   21430   0.96149813   -9422.9599    71.760049    300.95137 
   21440   0.96130385   -9421.4829     50.89206    296.00612 
   21450   0.96105657   -9420.0507   -86.440475    299.30428 
   21460   0.96088615   -9418.2799   -78.640037    298.86793 
   21470   0.96080621    -9417.035   -57.736288    302.50609 
   21480   0.96077641   -9415.7578     66.08167    301.42592 
   21490   0.96066844   -9414.5996    164.59919    296.76141 
   21500   0.96039128   -9413.5881   -62.738053     302.5423 
   21510   0.96017334   -9412.3168   -276.34357    303.01527 
   21520   0.96026445   -9411.1762   -270.95577    303.29088 
   21530   0.96066318    -9410.299   -10.069779     303.5564 
   21540     0.961085    -9409.765    280.48898    302.90855 
   21550   0.96119868   -9409.4814    443.56707    296.78169 
   21560   0.96081643   -9409.4129    275.33666    298.42297 
   21570   0.96008189   -9409.1855    44.726568    299.99574 
   21580     0.959247   -9408.7635   -62.939144    299.76573 
   21590   0.95845205   -9408.5077   -164.32262    302.24945 
   21600   0.95781852   -9408.1075   -235.46424    301.96694 
   21610   0.95743099   -9407.6674    -165.5535    302.34209 
   21620   0.95720507   -9407.3092    149.79466    290.60136 
   21630   0.95683738   -9407.2786    89.071198     293.4475 
   21640   0.95634399   -9406.9713   -37.395228    294.51013 
   21650   0.95587341   -9406.3608   -101.46908    294.90728 
   21660   0.95548464   -9405.6225    17.961305    293.70216 
   21670   0.95505669   -9404.8996    138.04227    292.50566 
   21680   0.95445295    -9403.919    150.43045    289.58179 
   21690   0.95366089   -9402.5784    14.842212    290.02449 
   21700   0.95282134   -9400.7066   -136.36465    289.41865 
   21710   0.95212561   -9398.1281   -322.26838    287.38936 
   21720   0.95180433   -9394.7126   -534.31091    295.95701 
   21730   0.95206951   -9390.7013   -327.44062    296.75902 
   21740   0.95273468   -9386.6189   -14.144502    293.47486 
   21750   0.95347136    -9382.132    40.124464    297.26864 
   21760   0.95417455   -9376.8835    99.108706    297.41514 
   21770   0.95477768   -9371.0266    187.24017     297.8754 
   21780   0.95517379   -9364.7242      207.039    299.31448 
   21790    0.9553616   -9357.9248   -31.567958    304.76974 
   21800   0.95558572   -9350.6387   -229.69127    311.90915 
   21810   0.95604838   -9343.3627    41.080608    299.76703 
   21820   0.95650923   -9336.7934    176.68835    300.07783 
   21830   0.95676761   -9330.1047    253.15207    299.22669 
   21840   0.95674313   -9323.9283    172.59852    303.17722 
   21850   0.95650029   -9317.9125    107.67321    302.28941 
   21860   0.95613322    -9312.409   -5.1154295    299.14683 
   21870   0.95577674   -9307.3403   -244.41071    309.31234 
   21880   0.95565252   -9302.5499   -88.307601    304.05361 
   21890   0.95564551    -9298.738    51.687004    301.63991 
   21900   0.95559284   -9295.4541    23.306236    307.61582 
   21910   0.95551231   -9292.4747   -36.516721    305.44448 
   21920   0.95548973    -9290.024   -188.55672    308.32959 
   21930   0.95566886   -9287.8396   -125.08103    304.39868 
   21940    0.9560189   -9286.1983   -99.779128    304.74385 
   21950   0.95649104   -9284.7422    -13.86897     303.1101 
   21960     0.957003   -9283.8661    8.5642557    309.23113 
   21970   0.95749231   -9283.1841      166.502    309.79732 
   21980   0.95778921   -9283.0485     368.4843    300.57307 
   21990    0.9576806   -9283.2059    313.60671     299.1539 
   22000   0.95718914   -9283.3679     223.9604     298.3025 
   22010   0.95643125   -9283.6408    14.330745    300.22948 
   22020   0.95562777   -9283.6609   -160.72931    302.36334 
   22030   0.95498127    -9283.534   -184.12643    302.24366 
   22040   0.95452377   -9283.5684   -72.575092    300.18719 
   22050   0.95414274   -9283.8743    19.871661    298.43536 
   22060   0.95375416   -9284.2124   -119.89544    302.25662 
   22070   0.95348295   -9284.4636   -168.23979    302.68173 
   22080   0.95339684   -9284.7974   -115.45792    299.98806 
   22090    0.9534713   -9285.3364   -234.66317    304.45746 
   22100   0.95381083   -9285.9408   -195.09929    303.03605 
   22110   0.95439742   -9286.7596   -111.09135    300.06412 
   22120   0.95516231   -9287.8697   -205.42104     308.2998 
   22130   0.95616118   -9289.1085    19.404899    307.28687 
   22140   0.95716958   -9290.7886    373.87827    303.09583 
   22150   0.95777785    -9292.673    555.55142    297.79289 
   22160   0.95777605   -9295.0349    331.52434    303.16644 
   22170   0.95734753   -9297.2454     196.8742    303.47963 
   22180   0.95667407   -9299.4709    55.743684    298.95988 
   22190   0.95592601   -9301.5828   -227.33531    299.97264 
   22200     0.955421   -9303.4292   -473.94988    307.13367 
   22210   0.95543105   -9305.5054   -386.66273    306.77935 
   22220   0.95590411   -9307.8706   -133.89026     301.0529 
   22230   0.95657318   -9310.6861    49.881637    301.56763 
   22240   0.95720949   -9313.9341    178.75964    304.34686 
   22250   0.95765956   -9317.2075    187.97935    306.15641 
   22260   0.95790762   -9320.7177    101.59124    308.03181 
   22270   0.95802433   -9324.6101    129.70437    307.55015 
   22280   0.95797549   -9328.6798    276.95049    301.63816 
   22290   0.95760216   -9332.9424    341.13945    296.53937 
   22300   0.95681451      -9337.2    225.39147    297.42943 
   22310   0.95573433   -9341.4264   -47.363301    300.97103 
   22320   0.95463403   -9345.0994   -105.28427    296.15616 
   22330   0.95362079   -9348.6335   -161.03866    295.43224 
   22340   0.95276279   -9351.8061   -274.95869    295.92966 
   22350   0.95222056    -9354.577   -509.77097    297.54804 
   22360    0.9522633   -9357.1647   -612.66137    303.59621 
   22370   0.95301261   -9359.9092   -337.10894     301.7614 
   22380    0.9542212   -9362.9125   -127.41716    303.18146 
   22390   0.95565337   -9366.2799   -68.456303    306.61631 
   22400   0.95722528   -9369.5763    25.946235    303.03264 
   22410   0.95885251   -9373.1273    10.756171    307.85823 
   22420   0.96050315   -9376.6092    217.44144     304.7903 
   22430   0.96196752   -9380.2673    328.79247    307.57278 
   22440   0.96308271   -9383.9154    398.73341    309.18373 
   22450   0.96374745   -9387.6714     481.1492    305.95967 
   22460   0.96387398   -9391.5267    367.51957    302.86945 
   22470   0.96355681   -9395.1262     239.1509     299.2975 
   22480    0.9629364   -9398.6562    125.59255    302.77632 
   22490   0.96211634   -9401.8109    136.84571    301.29815 
   22500   0.96112607   -9405.0829   -31.791406    303.64073 
   22510   0.96012913    -9407.779   -113.72707    296.71725 
   22520   0.95925928   -9410.1546   -279.69825      295.657 
   22530   0.95870049   -9412.1858   -449.36838    302.37268 
   22540   0.95862607   -9413.7923   -269.87794    295.05361 
   22550   0.95889808   -9415.5203   -168.94402    292.36087 
   22560     0.959397   -9417.1681   -224.99379    302.81469 
   22570   0.96015241   -9418.6462    -49.62877    299.26024 
   22580    0.9610167   -9420.2277    34.864985    298.92088 
   22590   0.96186676    -9422.012    115.89095    303.56145 
   22600   0.96259033   -9423.5825    344.76738    296.32521 
   22610   0.96294604   -9425.3317    385.92236    294.41926 
   22620   0.96285799   -9426.7831    289.27795    292.05257 
   22630   0.96243559   -9428.1869     6.519873    299.32492 
   22640    0.9619609   -9429.0888   -87.789156     298.3004 
   22650   0.96158203   -9430.0416   -155.62581    296.21982 
   22660   0.96137151   -9430.7505   -164.25783     295.2607 
   22670   0.96134639    -9431.344   -81.890652    291.26253 
   22680    0.9614281   -9431.9106   -54.203608    291.64059 
   22690   0.96157652    -9432.046   -30.216186    287.39424 
   22700   0.96179322    -9432.108   -188.16712    291.42583 
   22710   0.96223219    -9431.829   -250.13885    296.58852 
   22720   0.96297203   -9431.5224   -116.34102    296.60436 
   22730   0.96387662    -9431.235    79.288612    296.98519 
   22740    0.9647194   -9431.2214    246.66233    296.65348 
   22750   0.96531464   -9430.9421    196.56606    296.99885 
   22760   0.96570976   -9430.7648   -48.394227    304.92178 
   22770   0.96614383   -9430.6299   -43.167064    304.66458 
   22780    0.9666222   -9430.7509     237.2053     299.7444 
   22790   0.96682923   -9431.0751    534.54307    295.23584 
   22800   0.96643175   -9431.8928    476.02632    297.91137 
   22810   0.96544397   -9432.6782    317.50019    295.52997 
   22820   0.96405354   -9433.1678     65.78477    293.09239 
   22830   0.96255726   -9433.0773   -319.30086     298.6618 
   22840   0.96139207    -9432.401   -564.03105    301.44334 
   22850   0.96086696   -9431.7115   -618.44498    302.46343 
   22860   0.96106765   -9431.2764   -503.10739    299.52875 
   22870   0.96187416    -9431.051   -278.89149    297.91513 
   22880   0.96304193   -9431.2513   -108.28806    302.90449 
   22890   0.96435464    -9431.688     113.0388    306.45093 
   22900   0.96554688   -9432.3263    441.08531     299.3169 
   22910   0.96625895   -9433.3027    547.97661    300.36472 
   22920    0.9663278    -9434.418    561.96637    300.39702 
   22930   0.96573777   -9435.8302    427.70869    295.90375 
   22940   0.96464076   -9437.2199    115.75531    295.96625 
   22950   0.96337605   -9438.0883   -139.55215    295.41103 
   22960   0.96226273   -9438.6426   -364.90741    298.73067 
   22970   0.96154282    -9438.783   -338.67291    296.62887 
   22980   0.96122352   -9439.0718   -314.88857    296.58237 
   22990   0.96129129   -9439.6438   -417.41082    299.66086 
   23000   0.96185405   -9440.2787   -419.13541    301.22923 
   23010   0.96290655   -9441.1464   -157.59728      299.487 
   23020   0.96415616   -9442.3777    247.96326     293.0532 
   23030   0.96515803   -9443.4809    406.15137    292.89361 
   23040   0.96570452   -9444.7229    422.09422    292.77783 
   23050   0.96574771   -9445.7773    445.43208    291.36866 
   23060   0.96527823     -9446.93    284.43905    295.86901 
   23070   0.96444953   -9447.8826    101.42554    297.30501 
   23080   0.96348178    -9448.789    -91.85299    299.11927 
   23090   0.96259398    -9449.551   -158.94856    295.11107 
   23100   0.96188073   -9450.0502   -165.04687    288.07675 
   23110   0.96137658   -9450.5197   -300.27736    289.59535 
   23120   0.96121228    -9450.399   -339.96819    290.40017 
   23130   0.96146076   -9450.3209   -375.04807    296.84164 
   23140   0.96214003   -9450.2487   -196.44826    296.55403 
   23150    0.9630695   -9450.3395    39.811877    293.82479 
   23160   0.96397979    -9450.394    188.90424    293.50922 
   23170   0.96470577   -9450.3352    154.54667    298.12904 
   23180    0.9652415   -9450.1673    250.12641    295.17817 
   23190   0.96550476    -9449.926    239.72195    293.77133 
   23200   0.96549241   -9449.4424    156.46382    292.64427 
   23210   0.96529878   -9448.9357    15.231275    296.42834 
   23220   0.96505747   -9448.0929    64.769564    293.43863 
   23230   0.96473491   -9447.1836    157.96676    285.72552 
   23240   0.96423651   -9445.9229    43.868499    284.05571 
   23250    0.9637035   -9444.0507   -373.95945    296.96496 
   23260   0.96355284   -9441.3709   -415.04033    299.33783 
   23270   0.96388235   -9438.8089   -205.43789    296.97286 
   23280   0.96447689   -9436.1723   -41.673848    297.01024 
   23290   0.96514295   -9433.7236     92.62287    298.43947 
   23300   0.96572363   -9431.0955    197.38696    297.43918 
   23310   0.96611073   -9428.2873    121.14651    298.46927 
   23320   0.96636022   -9425.6882      36.3673    304.00772 
   23330   0.96653917   -9422.7464     194.8165    296.30261 
   23340   0.96652261   -9420.1874    106.06331    301.01393 
   23350   0.96636543   -9417.1306    39.936502    298.78265 
   23360   0.96617439   -9414.2241    -115.1156    305.45127 
   23370   0.96606213   -9411.1381    159.39987    297.26126 
   23380   0.96578252   -9408.5394    276.14871    293.47782 
   23390   0.96519485   -9405.8119   -16.358546    306.73577 
   23400    0.9645478   -9402.7529   -7.3922946    305.07355 
   23410   0.96389111   -9400.2026    4.1120206    302.25703 
   23420   0.96319889   -9397.7286    8.8418538    301.19822 
   23430   0.96246031   -9395.4566     57.38668    296.88285 
   23440   0.96163848   -9393.2478   -18.689096    298.92781 
   23450   0.96080175   -9390.7004   -90.952838    298.06546 
   23460   0.96005071   -9388.0608   -231.54637    298.65212 
   23470   0.95953527    -9385.204   -278.77375    297.68004 
   23480   0.95933718   -9382.4053   -310.88112     297.8931 
   23490   0.95950376   -9379.6498   -270.02113    298.96326 
   23500   0.95999809   -9377.0589   -116.42596    300.59925 
   23510   0.96064728   -9374.6375    115.47117    299.22896 
   23520    0.9611878   -9372.3303    348.20075    294.35685 
   23530   0.96135997   -9370.1289    296.78128    300.59696 
   23540   0.96117663    -9367.911    142.69686    307.32943 
   23550   0.96079785   -9365.7078    85.735934    301.81146 
   23560   0.96031569   -9363.5921   -65.802339    299.29388 
   23570    0.9598938   -9361.4614   -151.01939    295.21018 
   23580   0.95964603   -9359.4267   -251.75036    299.30766 
   23590   0.95966431   -9357.1448   -136.44916    300.15273 
   23600   0.95984622   -9355.0822    13.259395    298.42836 
   23610   0.96004411   -9353.0283   -27.068406    302.07856 
   23620   0.96027933   -9351.2089   -62.409634    306.59194 
   23630   0.96057414   -9349.4228    98.119282    302.81015 
   23640   0.96078309    -9348.029    102.98295    303.58992 
   23650   0.96087761    -9346.609    47.814156    305.17414 
   23660    0.9609112   -9345.4087    89.337728    300.90545 
   23670   0.96085741   -9344.2819    27.989116    298.73311 
   23680   0.96078247   -9343.4077   -191.15098    308.38122 
   23690   0.96090659   -9342.6408   -183.33634    313.05219 
   23700   0.96121382   -9342.1365    169.47386    305.97478 
   23710   0.96135777   -9342.3391    259.04631     306.9716 
   23720   0.96121011   -9342.7732    132.50759    307.15979 
   23730   0.96089803   -9343.3501    34.136846    303.71527 
   23740   0.96052639   -9343.9394    36.103426     297.4672 
   23750   0.96011752   -9344.7151   -48.365354    299.02662 
   23760   0.95974513   -9345.4984   -106.97447    300.46068 
   23770   0.95950566   -9346.1801   -298.79358    305.81854 
   23780   0.95960639   -9347.0944   -404.69643      310.691 
   23790   0.96016773    -9348.411   -174.95304    306.64251 
   23800   0.96096156    -9350.321    124.57988    303.23109 
   23810    0.9616474   -9352.7239    226.46761    307.18175 
   23820   0.96207565   -9355.3519    251.49927    307.29185 
   23830   0.96222083   -9358.6397    183.93385    307.09647 
   23840   0.96214444   -9362.0988    162.96903    303.83151 
   23850   0.96186588   -9366.0935    166.97888    304.50772 
   23860    0.9613678   -9370.4331    232.63499    302.04479 
   23870   0.96060105   -9375.2669    83.237406    300.07613 
   23880   0.95972799   -9380.0829   -202.24278    301.90571 
   23890   0.95904577    -9384.823   -213.27633    298.46497 
   23900   0.95860863   -9389.6143   -225.16881    297.70919 
   23910   0.95844055    -9394.467   -330.70214    297.60237 
   23920   0.95865581   -9399.2454    -298.6457    294.13924 
   23930   0.95922717   -9404.0963   -118.51996    292.70728 
   23940   0.95995738   -9408.8056    73.086386    293.69164 
   23950   0.96063265   -9413.5351    137.94368     296.8728 
   23960   0.96117883   -9417.9007   -6.4972707    299.18255 
   23970   0.96175212   -9422.2388    -227.6295    307.22772 
   23980   0.96257011   -9426.5295   -83.295476      303.738 
   23990   0.96353071    -9431.067   -4.2385368    306.53583 
   24000   0.96449792     -9435.59    210.85628    303.34689 
   24010   0.96524741   -9439.7871    403.82001    295.81271 
   24020   0.96556057   -9443.8967    337.43237    300.18079 
   24030   0.96544868   -9447.5093    405.44381    299.22222 
   24040   0.96486139   -9451.1543    342.41785     298.4207 
   24050   0.96387923   -9454.4377   -55.280847    300.74698 
   24060    0.9629165   -9456.9732   -280.92902     297.6795 
   24070   0.96224066   -9459.1011   -224.89582    294.29597 
   24080   0.96181095   -9460.7624    -66.73256    290.07629 
   24090   0.96147206   -9462.4295   -75.629569    292.02024 
   24100   0.96121869   -9463.5925   -158.11684    293.84655 
   24110   0.96114893   -9464.4963   -244.60819    296.38941 
   24120   0.96135767   -9465.2118    -221.7082     298.4465 
   24130   0.96183156   -9465.7795   -117.85945    297.22631 
   24140    0.9624862   -9466.5519   -164.50434    299.24742 
   24150   0.96335676   -9467.4249   -135.55047    301.20949 
   24160   0.96439852    -9468.294    90.352264    300.84206 
   24170   0.96536571   -9469.1851    342.65879    297.10262 
   24180   0.96597502   -9470.0585    402.93029    292.63987 
   24190   0.96616212   -9470.8397    114.57117    297.25717 
   24200   0.96619095   -9471.3449   -5.4615696    295.70044 
   24210   0.96622171   -9471.6582   -49.174756      294.377 
   24220   0.96633001   -9472.0649   -198.69099    302.06029 
   24230   0.96664777   -9472.2749   -68.179481    297.03921 
   24240   0.96708122   -9472.5897    8.1585789    296.66651 
   24250    0.9675182   -9472.9239    113.56818    297.06759 
   24260   0.96784106   -9473.4125    187.66851    297.57801 
   24270   0.96796032   -9473.7226    139.59395    298.77827 
   24280   0.96791398   -9474.1557    105.64719    295.76858 
   24290   0.96773121   -9474.5322    130.24754    297.68352 
   24300   0.96737187   -9474.9791    193.76568    296.85472 
   24310    0.9667703    -9475.368    143.85551    291.89886 
   24320   0.96598589   -9475.6139   -73.993422    294.16925 
   24330   0.96522446   -9475.1835    -75.76567    289.02193 
   24340   0.96453623   -9474.7716   -128.49709    290.81209 
   24350   0.96396846   -9474.1722   -222.96579    295.40201 
   24360   0.96364596   -9473.3158   -308.13377    296.65909 
   24370   0.96366315   -9472.2084   -184.93413    293.40735 
   24380   0.96389246    -9471.148    74.329836    292.20919 
   24390   0.96405908   -9470.4524    177.76116    296.23106 
   24400   0.96401406   -9469.5528    217.15172    296.38327 
   24410   0.96370523   -9468.4716    245.41777     289.0823 
   24420   0.96311648   -9467.4762    27.600378    292.00107 
   24430   0.96245192   -9465.9431   -160.30336    295.56588 
   24440   0.96193271   -9463.8495   -219.89407    293.28252 
   24450   0.96167824   -9461.6169   -386.17873    299.21523 
   24460   0.96184528   -9459.2621   -264.78138    301.81422 
   24470    0.9623345   -9457.1646     9.931874    296.62593 
   24480   0.96286234    -9455.213    77.970115    295.40557 
   24490   0.96332371   -9453.1836    78.340378    296.96426 
   24500   0.96370526   -9450.9268    127.28019    296.46943 
   24510   0.96395621   -9448.7413     124.4708    299.00274 
   24520   0.96405928   -9446.5283    169.85465    296.26731 
   24530   0.96397117   -9444.2763    132.60792    297.99153 
   24540    0.9637082   -9442.0037    154.57688    299.16651 
   24550    0.9632416   -9439.7111     203.7385    296.10009 
   24560   0.96252286   -9437.2883    109.47143     294.0016 
   24570   0.96165185   -9434.6106    -66.32879     292.8977 
   24580   0.96082836   -9431.5488    -223.1013    291.19763 
   24590    0.9602409   -9427.9733   -295.66997    293.25852 
   24600   0.95997642   -9424.1765   -242.65154    293.78671 
   24610   0.96000171   -9420.4277    -194.7315    295.14902 
   24620   0.96026346   -9416.5209   -164.45143     299.3796 
   24630   0.96071586   -9412.5963    30.160496    296.90962 
   24640   0.96115723   -9408.8701    186.19257    293.39432 
   24650   0.96141513    -9405.067    138.28989    295.85747 
   24660   0.96150324    -9401.183    153.08387     293.9228 
   24670   0.96141571   -9397.3625    129.95446    292.61208 
   24680   0.96117502   -9393.3175    32.307205    294.96201 
   24690   0.96089032   -9389.1582   -138.33847     300.9213 
   24700   0.96074621   -9385.1295   -200.10563    304.65519 
   24710   0.96080757   -9381.1683    32.495389    296.94987 
   24720   0.96086084    -9377.908     113.7828    298.34723 
   24730   0.96077348   -9374.5937    175.28776    297.55941 
   24740   0.96048904   -9371.6196    70.868508    303.15924 
   24750   0.96008244   -9368.7775    100.59069    305.75924 
   24760   0.95953182   -9366.3418    214.71454    303.52898 
   24770   0.95873546   -9364.6339    85.906165    304.82852 
   24780   0.95781673   -9363.0189   -89.449846    305.27114 
   24790   0.95697508   -9361.5454   -187.63166    304.35158 
   24800   0.95631252   -9360.2123   -80.339346    298.71429 
   24810   0.95575888   -9359.1734   -164.06149    299.94214 
   24820   0.95538725   -9358.1097   -305.71677    306.08345 
   24830   0.95534773   -9357.2423   -206.34559    305.49171 
   24840   0.95554213    -9356.801    48.952925    302.51395 
   24850   0.95568792    -9356.655    281.46942    297.01949 
   24860   0.95553838   -9356.7745     135.5223    298.89075 
   24870   0.95522924   -9356.6293   -110.83802    300.21219 
   24880   0.95501563   -9356.3555   -104.31419    302.17114 
   24890    0.9549006   -9356.4607    82.325232    304.41904 
   24900   0.95468774   -9356.8191    206.74094    301.45038 
   24910   0.95423749   -9357.2812    160.98999    298.04122 
   24920   0.95358719   -9357.7762    11.079857    298.34982 
   24930     0.952895    -9358.115   -83.002381    297.92326 
   24940   0.95227918   -9358.2901   -132.80802    296.11482 
   24950   0.95180364   -9358.4459   -189.30889    297.51165 
   24960   0.95153032   -9358.4411    -166.7955    298.85601 
   24970   0.95145707   -9358.5691   -147.61277    296.21584 
   24980   0.95157222   -9358.3455   -199.69503    294.50192 
   24990   0.95194796   -9358.1894   -335.27725    299.19388 
   25000   0.95272579   -9358.0949   -334.27834    307.28443 
   25010   0.95391129   -9358.5733   -84.037731    309.03811 
   25020   0.95524256   -9359.1821    206.30662     302.8552 
   25030   0.95640712   -9360.2219    237.80642    302.72653 
   25040   0.95731472   -9361.3987    268.83299    303.36407 
   25050   0.95793017    -9362.715    268.93344    306.43002 
   25060   0.95823556   -9364.0359    280.07246    303.75234 
   25070   0.95821392   -9365.6731    286.40282    301.85631 
   25080   0.95783925   -9367.5014    313.68755    298.93164 
   25090   0.95709083   -9369.2223    186.09246    290.84064 
   25100   0.95612985   -9370.5852   -228.62644    295.01886 
   25110   0.95537291   -9371.4115   -360.88861    298.82295 
   25120   0.95499856   -9372.1579   -249.12004    300.29574 
   25130   0.95489944   -9373.0847   -36.908034    295.88808 
   25140   0.95485021   -9374.0618    102.65859    294.13463 
   25150   0.95469798   -9375.0652    28.527245    297.42965 
   25160   0.95451319   -9375.8296   -143.67242    300.38304 
   25170   0.95447715   -9376.4787   -143.07412    297.53757 
   25180   0.95460162   -9377.1916    2.3237788    293.31021 
   25190   0.95474079   -9377.8892    74.854659    290.65946 
   25200   0.95482606   -9378.4033   -93.990465    292.31628 
   25210   0.95504357   -9378.6756   -404.53613    302.79929 
   25220   0.95571779   -9378.9208   -362.43654    305.83905 
   25230    0.9568374   -9379.6581     16.91474    300.92889 
   25240   0.95800457   -9380.4786    303.50474    294.87873 
   25250   0.95889365   -9381.3757    252.47394    298.14001 
   25260   0.95950611   -9382.2136      147.258    304.33791 
   25270   0.95994564   -9383.2124     206.0628    298.62212 
   25280   0.96016141   -9384.2343     254.8096    290.36475 
   25290    0.9601133    -9385.185    14.611454    295.38164 
   25300   0.96002022   -9385.6744   -91.806044    297.50136 
   25310   0.96002857   -9386.2434   -76.536869    295.74063 
   25320   0.96014165   -9386.7506   -118.47546    299.30919 
   25330    0.9603781   -9387.1923   -4.5622992     299.6687 
   25340   0.96063631   -9388.0478    68.088036    299.29889 
   25350   0.96082775   -9388.8125    103.15021    299.36841 
   25360   0.96090731    -9389.693    77.306012    300.69506 
   25370   0.96089351   -9390.6518    57.349151    298.87601 
   25380   0.96081615   -9391.6678    24.915073      297.496 
   25390   0.96070768   -9392.8318   -24.887925     299.7363 
   25400   0.96060806   -9393.9404     27.59339    297.10687 
   25410   0.96048928   -9395.3949   -60.757342    297.67006 
   25420   0.96042842   -9396.6853   -120.93162    298.54619 
   25430   0.96050768   -9397.9793   -125.14785    299.63361 
   25440   0.96074051   -9399.5688   -91.059795    301.62406 
   25450   0.96107949   -9401.4037     47.01928    300.07695 
   25460   0.96137567   -9403.7224    205.85955    298.38837 
   25470   0.96143837   -9406.3379    298.22678    296.78037 
   25480   0.96116448   -9409.1718    207.74394    294.40921 
   25490   0.96062889    -9412.004    97.284537    292.11341 
   25500   0.95996281   -9415.1615   -48.486687    296.74294 
   25510   0.95930796   -9418.2102   -40.128874    293.99987 
   25520   0.95868762   -9421.7735   -119.28668    298.51896 
   25530   0.95817064   -9425.4781   -83.290982    294.10192 
   25540   0.95776171    -9429.414   -151.98132      293.353 
   25550   0.95752189   -9433.5192    -252.2359    296.96964 
   25560   0.95756418   -9437.8755   -222.10893    296.80244 
   25570   0.95787035   -9442.8322   -143.08281    299.46561 
   25580   0.95835277   -9447.9542   -10.915024    295.53605 
   25590   0.95889047   -9453.1887   -52.683724    294.62987 
   25600   0.95951133   -9458.7396   -124.40384    298.01117 
   25610   0.96028591   -9464.3934   -42.797028    297.05243 
   25620   0.96112795    -9470.095    134.91921    293.96652 
   25630   0.96183737   -9475.4165     284.0992    289.79734 
   25640   0.96225203   -9480.6258    180.29662    294.11522 
   25650   0.96245171   -9485.6421    92.710676     298.6806 
   25660   0.96252202   -9490.4686    177.83689      295.367 
   25670   0.96239342   -9495.0988    175.22711     295.4756 
   25680   0.96203602   -9499.5301    203.24943    296.03573 
   25690   0.96142954   -9503.7717    158.81882     297.4709 
   25700   0.96061632     -9507.67    62.642169    295.09689 
   25710   0.95970222   -9511.0577    48.054337    287.96266 
   25720   0.95871085   -9513.9534     40.06055     284.0646 
   25730   0.95765792   -9516.2736   -108.79763    285.39623 
   25740   0.95671251   -9517.9737   -337.08186    288.69031 
   25750     0.956138   -9518.9135   -463.39449    290.37484 
   25760   0.95609293    -9519.649    -405.6538    289.81839 
   25770    0.9565317   -9520.3038   -258.71957    289.96421 
   25780   0.95728197   -9520.6733      5.29797    285.91318 
   25790   0.95806565   -9520.9048    159.58215     282.2775 
   25800   0.95870517   -9520.8558    69.049573    287.82693 
   25810   0.95926083   -9520.4292    73.663935    287.84135 
   25820   0.95974366   -9519.5738    89.767843    288.46788 
   25830   0.96012316   -9518.5912    171.23659    287.86384 
   25840   0.96031051   -9517.4535    234.50203    288.81883 
   25850   0.96023015    -9516.031    173.57244    290.22512 
   25860   0.95994215   -9514.3548    93.614149    287.67328 
   25870   0.95953255   -9512.5609    51.031476    289.11987 
   25880   0.95903272   -9510.5014    109.81263    286.22763 
   25890   0.95840054   -9508.4004    65.262715     284.4526 
   25900   0.95767991   -9505.7461    -76.75411    285.64276 
   25910   0.95703679   -9502.5666    -298.5525    289.68825 
   25920   0.95671537    -9498.914    -410.7757    290.16453 
   25930   0.95687758   -9495.2649   -466.71239    295.35741 
   25940   0.95758577   -9491.4663   -292.69314    295.91555 
   25950   0.95865861   -9488.0945    105.26418    288.93781 
   25960   0.95967089   -9484.8858    343.91934    284.83466 
   25970   0.96032845   -9481.6529    339.41054    289.27197 
   25980   0.96058399   -9478.1306     372.5284    288.09678 
   25990   0.96041877   -9474.7373    230.22761    289.51322 
   26000   0.95995833   -9471.1139     111.1533    291.75024 
   26010   0.95931993   -9467.4279    180.79662      288.997 
   26020   0.95846935   -9463.8188   -10.756186    293.75961 
   26030   0.95760698   -9459.9333   -292.18552    295.17839 
   26040   0.95705285   -9456.0358   -364.85508    297.19567 
   26050    0.9568901   -9452.2917   -151.21809     296.4359 
   26060   0.95691449   -9449.1992   -10.281468    300.19154 
   26070   0.95693652   -9446.2112    187.73855    289.00025 
   26080   0.95679466   -9443.7236   -58.976186    292.44198 
   26090   0.95669145   -9440.8968   -147.63924    298.15113 
   26100   0.95672537   -9438.2528    123.33908    293.41937 
   26110   0.95663516   -9435.9082    221.02514    293.28313 
   26120    0.9562878   -9433.7584     113.5286    299.41642 
   26130   0.95577447   -9431.4315    57.598816    299.68184 
   26140    0.9551749   -9429.4313   -11.468058    298.05719 
   26150   0.95455288   -9427.5479   -1.6366843    296.71644 
   26160   0.95390239   -9425.8034    30.225566    291.67837 
   26170   0.95322199   -9424.2031    -240.3385    300.78534 
   26180   0.95276294    -9422.105    -226.4522    294.44463 
   26190   0.95258537   -9420.1879   -252.21934    291.19812 
   26200   0.95271026   -9418.0551   -270.49861    288.83724 
   26210   0.95319821    -9416.094   -448.84324    301.95343 
   26220   0.95419743   -9414.1071   -253.42511    303.72389 
   26230   0.95554459   -9412.5936    83.243975    298.51863 
   26240   0.95685086   -9411.0875    375.97502    297.95176 
   26250   0.95776849   -9409.9929    517.71994    301.09324 
   26260    0.9581063   -9408.9619    517.92375     299.8148 
   26270   0.95784529   -9408.2648    366.70272    297.92134 
   26280   0.95713829   -9407.4756     106.4784     302.4921 
   26290    0.9562577   -9406.5562   -32.325888    305.13576 
   26300   0.95536821    -9405.465   -9.4197057    297.00995 
   26310   0.95447914   -9404.7766   -141.84902    299.81289 
   26320    0.9537179   -9403.7671   -238.42888    296.89173 
   26330    0.9532366   -9402.7328   -418.56529    301.15447 
   26340    0.9532184     -9401.62   -363.82881    304.87391 
   26350   0.95362919   -9400.8812   -166.71256     302.0061 
   26360   0.95427059   -9400.6248   -43.099345     302.6136 
   26370   0.95496454   -9400.4962     255.6694    297.01205 
   26380   0.95539621   -9400.4052    390.15977    293.17115 
   26390   0.95539838   -9400.4641    211.05244    298.48116 
   26400   0.95512945   -9400.1627     67.82023    298.75066 
   26410   0.95477067   -9399.7602   -28.973276     294.6977 
   26420   0.95444922   -9399.2395   -195.07936    294.81998 
   26430   0.95434999   -9398.5094    -335.2252    301.48506 
   26440   0.95462873   -9397.8039   -271.46764    304.88994 
   26450   0.95523892   -9397.4487   -91.105935    300.64067 
   26460   0.95599847   -9397.3602   -10.115504    300.78277 
   26470   0.95678218   -9397.3421    125.33842    302.16188 
   26480   0.95743283   -9397.4713    302.11358    300.40433 
   26490    0.9577483   -9397.8013    369.26004    298.90213 
   26500   0.95764287   -9398.2788    270.27715    296.71627 
   26510   0.95723552   -9398.5265   -78.874511    298.50662 
   26520   0.95690538   -9398.4989   -396.27567    305.92354 
   26530   0.95699255   -9398.4468   -268.29887    305.31558 
   26540   0.95739743   -9399.0176    2.5453983    303.94725 
   26550   0.95783645   -9399.8586    37.848581    304.77576 
   26560   0.95825217   -9400.9323   -26.196191    303.34546 
   26570   0.95870175   -9402.2779  -0.29477747     305.1625 
   26580   0.95915794   -9403.8151    103.91866    303.32509 
   26590   0.95951228    -9405.751    103.39367    304.26492 
   26600    0.9597478   -9407.9992    110.83758    304.55048 
   26610   0.95984757   -9410.4401    210.64479    297.55017 
   26620   0.95972717   -9413.1103    116.56079    296.94397 
   26630   0.95945948     -9415.86    56.307804    293.26459 
   26640   0.95912785   -9418.5964   -84.007445    297.59311 
   26650   0.95886646    -9421.393   -82.460022    300.43495 
   26660   0.95867825   -9424.2587    105.84074    294.24978 
   26670   0.95838891   -9427.5068    24.213052    296.76891 
   26680   0.95806315    -9430.777   -170.86265     302.4522 
   26690   0.95789505   -9434.0706   -65.172311    294.95967 
   26700    0.9578186   -9437.5219     1.252098    290.30727 
   26710   0.95776103    -9441.137   -122.29475    296.75766 
   26720   0.95782819   -9444.7227   -113.68114    297.98942 
   26730   0.95802451    -9448.567    20.429497    291.98585 
   26740    0.9582166   -9452.4257    88.670855    289.18337 
   26750   0.95830827   -9456.2204    97.476509    291.31934 
   26760   0.95829456   -9459.7139    10.975739    293.74788 
   26770   0.95826529   -9462.9366   -71.009644    292.92407 
   26780   0.95832404   -9466.2141   -139.14138    296.14574 
   26790   0.95853613   -9469.5281    -85.77132    294.80724 
   26800   0.95887356   -9472.8809   -113.45855    295.85672 
   26810   0.95935655   -9476.2651   -132.21247     297.5597 
   26820   0.96000799   -9479.6497   -50.555908    295.51346 
   26830   0.96072887    -9482.933    201.00146    288.78319 
   26840   0.96124559   -9486.2113    367.66365    285.52392 
   26850   0.96135474   -9489.1629    308.37954    284.60526 
   26860   0.96110438   -9491.6769     116.6751    288.50465 
   26870   0.96068747   -9493.7022    12.685695    285.62034 
   26880   0.96025307   -9495.2292   -160.23388    285.47342 
   26890   0.96000476   -9496.3555   -384.87909    290.74164 
   26900   0.96018119   -9497.1574   -321.77987    293.27028 
   26910   0.96073872   -9498.0713   -86.452834    295.19775 
   26920   0.96142133   -9498.9593    177.73826     291.1044 
   26930   0.96192343    -9499.681    423.97566    281.48949 
   26940   0.96196643   -9500.3456    399.14632    280.16403 
   26950   0.96154679   -9500.4083     163.7655    279.49356 
   26960   0.96092371   -9499.6518   -185.46008    282.76324 
   26970   0.96048192   -9498.1018   -359.09937    286.50268 
   26980   0.96041533   -9496.0474   -132.32827    281.81064 
   26990   0.96052106   -9493.9553    25.279627    286.60654 
   27000   0.96060091   -9491.4083    75.761198    290.41421 
   27010   0.96060375   -9488.4188    3.4997231    291.04612 
   27020   0.96061157   -9485.2448   -155.01381    296.62459 
   27030   0.96078568   -9481.5558   -132.26046    295.32878 
   27040   0.96112862   -9477.7725   -46.408932    292.31933 
   27050   0.96154327    -9473.825    49.941101    291.66068 
   27060   0.96190888   -9469.7209    191.42403    295.31915 
   27070   0.96205058   -9465.2839    369.96641    290.00829 
   27080   0.96178738   -9460.9758       231.59    294.98577 
   27090   0.96121082   -9456.1739    164.02086    294.74037 
   27100   0.96042215   -9451.3883    33.079519    301.77731 
   27110   0.95951012   -9446.3327    264.17507    287.65164 
   27120   0.95831077     -9441.88    57.897545     289.8271 
   27130   0.95699025   -9436.7433   -275.45266    297.12277 
   27140    0.9559477   -9431.2583   -510.47611    299.54595 
   27150   0.95545547   -9425.8216   -445.06767    296.93175 
   27160   0.95547763   -9421.0109   -208.22461    295.42273 
   27170   0.95576804   -9416.6448   -79.264814    295.61005 
   27180   0.95617761   -9412.6747   -68.908699    296.77262 
   27190   0.95669438   -9409.1402   -154.88882    302.33273 
   27200    0.9574092   -9406.1252   -173.62568    305.43604 
   27210   0.95832942    -9403.588    102.31095    300.76674 
   27220    0.9591686   -9401.7349    376.88884    295.65045 
   27230   0.95961458   -9400.2883    333.93222    302.54505 
   27240   0.95965784    -9398.933    294.95751    300.35964 
   27250   0.95936605   -9398.0588    120.04984    299.12288 
   27260   0.95893276   -9396.8411   -179.86525    299.15145 
   27270   0.95869386   -9395.8219   -395.06677     305.9387 
   27280   0.95887545    -9394.843   -192.13231    303.71843 
   27290   0.95930617   -9394.4816 0.0072803343    304.41382 
   27300    0.9597457   -9394.4127    219.98517    301.58481 
   27310   0.95993752    -9394.494     429.3234    294.86287 
   27320   0.95964591   -9394.5925    376.11173    291.57079 
   27330   0.95891014   -9394.7465    68.519458    298.75223 
   27340   0.95802604    -9394.592    15.022665    297.09553 
   27350   0.95709608   -9394.5532    15.621017    294.17438 
   27360   0.95612536     -9394.32   -70.346713     294.8646 
   27370   0.95522533   -9393.7788   -253.67289    295.49636 
   27380   0.95460217   -9392.8782   -372.99339    293.99263 
   27390   0.95440886    -9391.969   -419.90354    296.54285 
   27400   0.95470525   -9391.0384   -356.24458    296.74727 
   27410   0.95544008   -9390.1557   -214.34017    294.11808 
   27420   0.95645181   -9389.5648    -48.60311    298.44462 
   27430   0.95753998   -9388.8514    221.48599     293.6905 
   27440   0.95842603   -9388.1609    239.21481     296.0484 
   27450   0.95905487    -9387.412    153.24216    301.33271 
   27460   0.95950526    -9386.762    160.71961    300.91003 
   27470   0.95977126   -9386.3674    203.41281    302.11261 
   27480   0.95978534   -9385.7259    364.90394     290.6842 
   27490   0.95940807   -9385.4437    176.76963     295.5974 
   27500   0.95877939   -9384.8358    86.178749    299.16243 
   27510   0.95802959   -9384.0668    3.6261622    300.86751 
   27520   0.95725638   -9383.3225   -126.18483    301.91062 
   27530   0.95660694   -9382.4298   -174.47829    298.20045 
   27540   0.95615271   -9381.5264   -193.54087     297.3965 
   27550   0.95593236   -9380.6426   -278.74516    298.05571 
   27560   0.95605257   -9379.7253   -425.64509     303.5756 
   27570   0.95664955   -9378.8736   -216.83213    300.04004 
   27580   0.95753157   -9378.3466    23.500853     298.8946 
   27590   0.95841882   -9377.9368    147.30199    302.47869 
   27600   0.95915615   -9377.8394    216.63279    307.48995 
   27610   0.95963557   -9377.8327    373.79751    304.36555 
   27620   0.95969712    -9378.341    397.14344    300.71182 
   27630    0.9592886   -9378.8469    327.97394    296.27721 
   27640   0.95849046   -9379.3188    122.60146    295.26256 
   27650   0.95753018    -9379.581   -200.04306    303.76669 
   27660   0.95675302   -9379.5842   -318.88245     305.1246 
   27670   0.95632645   -9379.8531   -263.95586    304.48563 
   27680   0.95620377   -9380.2023   -172.30477    302.38594 
   27690   0.95630009   -9380.9455   -198.95783    305.91973 
   27700   0.95662331    -9381.923    -103.3986    305.60463 
   27710   0.95707667   -9383.1353    86.473186     298.4874 
   27720   0.95746476   -9384.7581    110.25938    300.92833 
   27730   0.95770846   -9386.3021    255.67176    296.40186 
   27740   0.95767954    -9388.173    158.09989    300.71638 
   27750   0.95745257   -9390.1354    4.9601119    302.45694 
   27760   0.95721569    -9391.964     -133.338    299.87895 
   27770   0.95714057   -9393.9112   -291.75865    300.72656 
   27780   0.95740886    -9395.946   -363.83419    300.19854 
   27790    0.9581289   -9398.2871    -400.2147    303.38203 
   27800   0.95933966   -9400.9606   -209.50579    300.40501 
   27810   0.96083827   -9403.8801    136.16005    297.28048 
   27820   0.96222928   -9407.1876    388.72299     297.7403 
   27830   0.96320207   -9410.4439    501.87658    291.93653 
   27840   0.96363201   -9413.7829    281.70786    296.77062 
   27850   0.96371976   -9417.0001    82.236594    302.62148 
   27860   0.96368777   -9420.3824    119.54152    301.47801 
   27870   0.96349844   -9424.1123    289.82235    297.51723 
   27880   0.96297277   -9428.0082    307.25604    293.65076 
   27890   0.96208662   -9431.6993    57.196105    293.37533 
   27900   0.96109778   -9435.3439   -184.18281    301.19037 
   27910   0.96025311   -9438.7054   -34.859312    297.12862 
   27920   0.95944118   -9442.2785    55.757522    290.07449 
   27930   0.95856604   -9445.6505   -104.81518    292.21403 
   27940   0.95777667   -9448.7393   -194.73752    294.25111 
   27950   0.95719015   -9451.3417    -206.2327    296.19409 
   27960     0.956845   -9454.2271   -269.41986    297.53799 
   27970   0.95680208   -9456.9004   -233.41365    297.15605 
   27980   0.95703615   -9459.7267   -129.63364    296.33558 
   27990   0.95744115   -9462.5209   -82.834543    295.84442 
   28000   0.95794688   -9465.4264     95.20976    292.96292 
   28010   0.95835366   -9468.0214    329.57597    285.71029 
   28020   0.95841829   -9470.4281    214.36879    287.10091 
   28030   0.95823225   -9472.3854   -41.210994    288.39976 
   28040   0.95808119   -9473.7801   -178.11563    286.13268 
   28050   0.95814495   -9474.7737   -286.37205    285.47748 
   28060   0.95856853   -9475.6003   -424.62627    292.31514 
   28070   0.95946487    -9475.886   -130.84611    286.56152 
   28080   0.96056993    -9476.435    63.566122    287.73146 
   28090   0.96163743   -9476.5682    153.90226    290.38132 
   28100   0.96255537   -9476.5173    241.40968    288.02962 
   28110   0.96323658   -9476.2024    117.11244    291.43178 
   28120   0.96379715   -9475.7841   -60.955358    299.27555 
   28130   0.96441493   -9475.0997     35.60055    297.62669 
   28140   0.96500759   -9474.3568    181.35322    295.89021 
   28150   0.96540693   -9473.6942    272.64918     294.8912 
   28160   0.96549402   -9473.0821    273.84607     294.6568 
   28170   0.96526854   -9472.3946    117.10225    297.51456 
   28180   0.96488667   -9471.3255    28.690867    290.21778 
   28190   0.96449127   -9470.0397   -252.04961    294.85813 
   28200   0.96435992    -9468.348   -368.93625    302.27741 
   28210   0.96463388   -9466.7262   -173.77641     302.4529 
   28220   0.96511554   -9465.3303    177.71869    294.08401 
   28230   0.96541993   -9464.1034    385.73021    288.63335 
   28240   0.96530526   -9462.5192    247.33829    290.57435 
   28250   0.96489067   -9460.5317    29.234768    293.28734 
   28260   0.96441303   -9458.0837   -101.04784    297.93418 
   28270   0.96402196   -9455.2159   -71.049227    295.99969 
   28280    0.9637261   -9452.1482   -147.24945    299.21432 
   28290   0.96359031   -9448.7416   -189.70958     304.5166 
   28300   0.96364609   -9445.0556    18.492454    300.49015 
   28310   0.96370243   -9441.6352    104.35852    299.88755 
   28320   0.96364779   -9437.8037    56.069312    298.18847 
   28330   0.96353369   -9433.6091   -10.027061    297.47673 
   28340   0.96341942   -9429.2182    20.180216    298.69207 
   28350   0.96326992   -9424.3742    126.62363    294.05906 
   28360   0.96298116   -9419.4024    55.821557     294.9223 
   28370   0.96261812   -9413.7659    -104.6271    298.49421 
   28380   0.96236056   -9407.6069   -177.86193    299.47209 
   28390   0.96231133   -9401.1851   -224.28652    302.16727 
   28400   0.96252178    -9394.823   -172.18271    302.09018 
   28410   0.96295126   -9388.5596   -107.23247    301.03476 
   28420   0.96353484   -9382.5114   -141.46328    306.71334 
   28430   0.96429672   -9376.6994   -94.899712    310.30785 
   28440   0.96517814    -9371.431    108.84924    307.27889 
   28450   0.96596587    -9366.958    238.27679    308.96552 
   28460   0.96649909   -9363.0761    304.75824    310.31828 
   28470    0.9666688   -9359.7657    428.53839    304.51171 
   28480   0.96636341   -9357.1526    244.11203    308.32215 
   28490   0.96574487   -9354.7708    4.8450235    314.37242 
   28500   0.96510069   -9352.8177   -200.32038    318.46291 
   28510   0.96465451   -9351.4749   -184.50806    315.78995 
   28520   0.96439818   -9350.7486     57.66382    308.65017 
   28530   0.96409617   -9350.7768    54.115137    310.04953 
   28540   0.96372681   -9350.9325   -44.130591    311.53306 
   28550   0.96339178   -9351.5608   -56.649393    312.37106 
   28560   0.96310799   -9352.4091   -7.0475994    304.21522 
   28570   0.96286093   -9353.4494   -176.28132    306.97505 
   28580   0.96279659   -9354.5258    -193.4324    308.93529 
   28590   0.96295197   -9356.0267   -59.450817    308.77986 
   28600   0.96315771   -9357.7526    281.99554      302.832 
   28610   0.96305221   -9359.7799    443.68205    298.27045 
   28620   0.96244276   -9361.8692    257.43574    299.85488 
   28630   0.96150894   -9363.9035   -44.123534    303.99878 
   28640   0.96057834   -9365.4474    -203.8093    304.82551 
   28650   0.95985046   -9367.0449   -179.83896    300.39992 
   28660   0.95931018    -9368.512   -63.168078    292.30735 
   28670   0.95886622   -9370.1483    -237.5387     301.2585 
   28680   0.95866448   -9371.2547   -236.93103    300.08794 
   28690   0.95874984    -9372.531   -191.02356    297.95895 
   28700   0.95907287   -9373.9191   -151.18424     298.9337 
   28710   0.95958933   -9375.1325   -90.185299    298.22613 
   28720   0.96023564   -9376.5101   -46.039911    304.58299 
   28730   0.96093705   -9377.8544    151.36212    299.70043 
   28740   0.96150215   -9379.4222    170.97223    298.34495 
   28750   0.96189006   -9380.9047    80.401796    298.68897 
   28760   0.96220274   -9382.2868   -68.628994    301.73119 
   28770   0.96259891   -9383.7398   -118.11353    304.77909 
   28780   0.96312656   -9385.2155    85.273496    297.75342 
   28790   0.96359182   -9386.7193      140.594    297.13845 
   28800   0.96390535    -9388.352    106.82148     300.8793 
   28810   0.96408297   -9389.9811    195.28339    299.60221 
   28820   0.96403439   -9391.6831    218.37838    303.13411 
   28830   0.96370346   -9393.4453    304.00642    297.90934 
   28840   0.96301175   -9395.3665    229.85452    293.75699 
   28850   0.96203859   -9397.0922   -24.593396     295.2476 
   28860   0.96105863   -9398.1942   -251.77117    299.40845 
   28870   0.96032904   -9399.3312   -291.64792    305.61731 
   28880    0.9598846   -9400.5502    19.213409    297.56661 
   28890   0.95943931   -9401.9357    71.162474      294.251 
   28900   0.95889975     -9403.33   -19.551557    294.24277 
   28910   0.95836173   -9404.3621   -51.025574    292.22985 
   28920   0.95789922   -9405.4673    -332.7937    305.15592 
   28930   0.95777461   -9406.2354   -243.97198    302.34569 
   28940   0.95793581   -9407.3878   -11.124517     298.1624 
   28950   0.95812294   -9408.7647    122.70982    302.16732 
   28960   0.95815732   -9410.1949    258.25746    296.66747 
   28970   0.95792336   -9411.7073    102.89162    295.32525 
   28980    0.9575592   -9412.9639   -107.15991    296.79189 
   28990   0.95729848   -9413.9291   -192.81785    297.81592 
   29000   0.95724899    -9414.974   -183.86467    300.26998 
   29010   0.95741695   -9416.2617   -111.59171    300.85958 
   29020   0.95772132   -9417.4696    18.686147    296.33172 
   29030   0.95803067    -9419.009     13.72054    301.50999 
   29040   0.95831838    -9420.414    97.191705    301.63769 
   29050   0.95851295   -9422.1259    87.117244    304.06378 
   29060   0.95860194   -9423.8588    90.012164    303.68189 
   29070   0.95858489   -9425.8006    138.19348    297.99844 
   29080   0.95841752   -9428.0504    38.497925    299.69042 
   29090   0.95818392   -9430.0252   0.53903343    295.26274 
   29100   0.95796554   -9431.8558   -178.04353    293.71065 
   29110   0.95795576   -9433.4748   -342.07181    295.18963 
   29120   0.95833455   -9435.0031   -230.83067    291.50527 
   29130    0.9590002   -9436.5641    -1.380091    289.67262 
   29140   0.95970583   -9438.1035    133.70897     290.4911 
   29150    0.9602906    -9439.505    124.92846    293.43803 
   29160   0.96074053   -9440.7979    139.43142    290.67617 
   29170    0.9610403   -9441.9916    137.83428    288.34127 
   29180    0.9611955   -9442.8298    27.125603    290.79454 
   29190   0.96131191   -9443.3285   -11.919399    290.50394 
   29200   0.96144638   -9443.8229   -31.210827     296.2556 
   29210   0.96160432   -9444.0574     67.71219    296.44463 
   29220   0.96170749   -9444.2238    41.974454    294.46979 
   29230   0.96177011   -9444.5015   -59.952692    299.71808 
   29240   0.96186851   -9444.6068    168.78914     289.3439 
   29250   0.96179588   -9444.9615    208.78632    289.97077 
   29260   0.96146567   -9444.9769    189.27547    289.16622 
   29270   0.96090686   -9444.8614    23.631715    295.17672 
   29280   0.96027921   -9444.2236   -9.4383055    291.40165 
   29290   0.95965785   -9443.4914   -72.863235    290.24023 
   29300   0.95909513   -9442.2172   -75.218992    289.01005 
   29310   0.95860752   -9440.4665   -74.201129    289.07718 
   29320   0.95820217   -9438.1372   -164.28656    295.22569 
   29330   0.95797365   -9435.0332   -194.30923    293.40228 
   29340   0.95798376   -9431.6452   -233.70177    295.10115 
   29350   0.95824313    -9427.723   -21.772685    291.11247 
   29360   0.95856172   -9423.5167    25.744845    291.97543 
   29370   0.95887429   -9418.4713   -91.249964     294.2518 
   29380   0.95929439   -9413.0459   -70.417753    296.09738 
   29390   0.95979022    -9407.065     182.9133    293.03389 
   29400     0.960096   -9401.1162    338.93271    291.44061 
   29410   0.96002857   -9394.8834    207.01195    293.82534 
   29420    0.9597165   -9388.2878   -28.514497    298.23324 
   29430   0.95940901   -9381.4662   -84.261057    297.90315 
   29440   0.95918443   -9374.8363   -43.444437    299.75379 
   29450   0.95899497   -9368.6048    49.313642    300.15739 
   29460   0.95874272   -9362.7955    104.72394    300.49505 
   29470   0.95836221   -9357.6394    64.169304    303.39687 
   29480   0.95789392   -9352.7493   -14.745726    302.41796 
   29490   0.95744247   -9348.4985   -180.77336    308.19554 
   29500   0.95715899   -9344.6153   -56.792829    300.87966 
   29510   0.95696169    -9341.341   -62.366042    303.32656 
   29520   0.95682122   -9338.3823    -28.26831    303.26824 
   29530   0.95671323   -9335.7408    11.532117    299.80241 
   29540   0.95661603   -9333.4475    -190.8068    306.53575 
   29550   0.95672718   -9331.0807   -264.16524    307.20427 
   29560   0.95715221   -9329.2435   -173.26389    308.43461 
   29570   0.95777238   -9328.0078    217.68279     300.5324 
   29580   0.95817271   -9327.1445    491.02803    293.67923 
   29590   0.95803221    -9326.473    350.61364    297.22863 
   29600   0.95747197   -9325.5507    25.291888    300.23382 
   29610   0.95685896   -9324.4349   -291.53453    306.20535 
   29620   0.95654546   -9323.1333   -297.18871    299.39313 
   29630   0.95659443   -9322.3152   -306.74846    301.76069 
   29640   0.95699912   -9321.4895   -196.61775    306.55452 
   29650   0.95764747    -9321.041    6.0639477    304.14068 
   29660   0.95833141   -9320.9897    63.569418    303.53919 
   29670   0.95896886   -9321.2744    67.007156    304.15161 
   29680   0.95953337   -9321.4226    183.90173    298.07688 
   29690    0.9599416   -9321.8162   -3.1193384    305.93917 
   29700   0.96034205   -9322.0628   -45.597243    305.52432 
   29710   0.96082496   -9322.7548   -108.67738    307.87069 
   29720   0.96143526   -9323.6776   -14.052706    309.09016 
   29730    0.9620757   -9325.0641    182.29182    308.96169 
   29740    0.9625128   -9326.9453    414.26524    303.69716 
   29750   0.96249257   -9329.1803     433.5376     300.3567 
   29760   0.96196666   -9331.5549    244.47317      304.623 
   29770   0.96110973   -9333.8327    128.70543    302.63464 
   29780   0.96007234   -9336.4129   -71.595977    306.98378 
   29790   0.95906465   -9339.0423   -147.35328    308.45102 
   29800   0.95818912   -9342.0066   -115.22662    305.13789 
   29810   0.95743619   -9344.9847   -170.55219    301.55459 
   29820   0.95688479   -9348.1367   -345.44235    303.51454 
   29830   0.95670231   -9351.2602   -302.75453    304.62274 
   29840   0.95686119   -9354.8502   -82.488999    300.24701 
   29850   0.95713446   -9358.4164    139.64928    292.61894 
   29860   0.95728006   -9362.0844    120.90977    295.50456 
   29870   0.95728119   -9365.4819     49.81832     299.0998 
   29880   0.95722405   -9368.8675   -54.156439     300.6767 
   29890   0.95722309   -9372.3218   -134.83172    305.91527 
   29900   0.95734811   -9375.5918    91.605173     297.9565 
   29910   0.95739859   -9379.1899    124.49282    297.77766 
   29920   0.95730396   -9382.8215    57.513771     299.3227 
   29930   0.95712706   -9386.1047    33.870213    298.56229 
   29940   0.95690587   -9389.5113    -17.92989    299.61161 
   29950   0.95668814   -9392.7478    32.325797    293.95459 
   29960   0.95643822   -9395.5607    18.154302    290.32544 
   29970   0.95617283   -9398.2809   -151.11981    299.57198 
   29980   0.95603904    -9400.693   -56.151781    299.55236 
   29990   0.95596616   -9403.0975    100.31333    290.62766 
   30000   0.95580645   -9405.2185   -21.675284    287.97607 
   30010    0.9556733   -9406.9427   -234.24878    291.57483 
   30020   0.95579128   -9408.3023   -210.21076    290.52502 
   30030   0.95617536   -9409.6617   -195.17079    295.94584 
   30040   0.95679295    -9410.766   -52.076804    294.42302 
   30050   0.95751148   -9411.8175    63.833469    289.15563 
   30060    0.9581999   -9412.7853    42.811642    293.48508 
   30070   0.95883598   -9413.3426    177.68442     293.1202 
   30080   0.95929142   -9413.9599    231.51161    293.80256 
   30090   0.95949517   -9414.3489    146.57506    293.83257 
   30100   0.95953518   -9414.7004    3.6565395    300.20564 
   30110    0.9595411   -9414.8374    76.518871    294.32623 
   30120   0.95949825   -9415.1931   -152.58404     299.8521 
   30130   0.95961496   -9415.3149   -235.63343    303.53824 
   30140   0.95998786   -9415.4026    35.115201    295.18676 
   30150   0.96037219    -9415.905    88.531976    296.54456 
   30160   0.96065859    -9416.109     125.1569    295.64462 
   30170   0.96079633   -9416.3415    208.15333    295.94972 
   30180   0.96068981   -9416.6641    246.62552    295.76964 
   30190   0.96029114   -9416.8619    168.33283    292.66664 
   30200   0.95969857   -9416.9075   -100.95701    295.26973 
   30210   0.95919203   -9416.4676   -234.64087    296.20653 
   30220   0.95894165   -9415.9768   -276.83505    299.37727 
   30230   0.95899405   -9415.5463   -134.61588     298.9924 
   30240   0.95921581   -9415.3286    8.1949392    298.49832 
   30250   0.95944573   -9415.1676    50.379447    298.62542 
   30260   0.95962097   -9414.9865    112.35213    296.31619 
   30270   0.95967063   -9414.9228    166.79072    296.48353 
   30280   0.95952305   -9414.9331    163.23842    299.68795 
   30290   0.95915575   -9414.7654    251.64997    294.30163 
   30300   0.95849488   -9414.8536    186.91991    293.60922 
   30310   0.95758716   -9414.5546    66.974944    290.09472 
   30320   0.95658713   -9413.9934   -173.62623    290.58871 
   30330   0.95576034   -9412.6337    -360.3895    291.08916 
   30340   0.95534219   -9411.0127   -457.76105    293.44011 
   30350   0.95545564    -9409.139   -436.94541    294.70949 
   30360   0.95609691   -9407.2408   -338.77226    296.22903 
   30370   0.95714858   -9405.3851   -83.502685    298.03793 
   30380   0.95833206   -9403.5024    221.35731      295.483 
   30390    0.9592981   -9401.5953     388.7677    297.32225 
   30400   0.95983009   -9399.3739    397.29539    305.45495 
   30410   0.95988601   -9397.2196    373.25944    311.23077 
   30420   0.95948485   -9395.2296    373.08431     303.8515 
   30430   0.95864541   -9393.5396     189.7035    304.44635 
   30440   0.95753457   -9391.5399    151.34693    296.83127 
   30450    0.9562407   -9389.2577   -36.921851    293.38704 
   30460   0.95496042   -9386.3221   -244.33664    292.14242 
   30470   0.95394514   -9382.6905   -461.38674    298.79547 
   30480   0.95342783   -9378.3247   -450.49205    302.31839 
   30490   0.95343463   -9373.9574    -322.5787    302.13659 
   30500   0.95383321   -9369.4586   -184.02872    303.99988 
   30510   0.95445115    -9364.833    107.58136    296.26317 
   30520   0.95498224   -9360.2925    238.31949    297.30589 
   30530   0.95525221   -9355.4492    218.69768    300.75198 
   30540   0.95526065   -9350.1305    213.31857    296.54088 
   30550   0.95501671   -9344.7267    201.47512    292.40506 
   30560   0.95453449   -9339.2118    92.177519    293.81765 
   30570   0.95393208   -9333.2962   -94.586752    295.41798 
   30580   0.95342117   -9326.9424   -262.32932    298.30478 
   30590   0.95320137    -9320.673   -334.10095    304.11358 
   30600    0.9533632   -9314.5851   -243.26798    304.98281 
   30610   0.95381776     -9309.11   -37.402523    300.76277 
   30620   0.95435336   -9304.2864    16.717669    303.94949 
   30630   0.95489834   -9299.8907   -83.505473    312.32417 
   30640   0.95554502   -9295.9098   -44.416005    310.96458 
   30650   0.95626271   -9292.8561    96.467489    308.81645 
   30660   0.95687914   -9290.3198    332.43772    301.57303 
   30670   0.95715099   -9288.5227    279.88317    306.83495 
   30680   0.95707639   -9286.7436     252.0897    303.04882 
   30690   0.95672823   -9285.3845    6.7059742    303.02594 
   30700    0.9563522   -9283.9563   -243.89085    306.38581 
   30710   0.95624947   -9282.6826   -354.63137    309.33784 
   30720   0.95655518   -9281.7985   -307.13011    314.62746 
   30730    0.9572218   -9281.6695   -15.889991    314.01568 
   30740   0.95792239   -9282.0647    367.27456    307.52546 
   30750   0.95824819   -9283.0281    379.85683    304.80558 
   30760   0.95815109   -9284.2117    127.37549    308.72878 
   30770   0.95788055   -9285.4731   -26.765249     310.4673 
   30780   0.95761442   -9286.7804     -9.49915    305.31062 
   30790   0.95737971   -9288.4213   -169.35048    305.66145 
   30800   0.95733744   -9290.0113   -311.95694    307.24071 
   30810   0.95765499    -9291.809   -278.70979    308.69892 
   30820   0.95831236   -9293.9367   -143.20456    312.04669 
   30830   0.95915982   -9296.5616    78.563397    308.29958 
   30840   0.95998036   -9299.6446    67.656958    310.66419 
   30850   0.96074111   -9303.1474     127.2853    310.36851 
   30860   0.96135617   -9306.5595    388.59092    299.14192 
   30870   0.96157114    -9310.316    295.67292    303.15512 
   30880   0.96143047   -9313.8702    141.21114    306.04992 
   30890   0.96110869   -9317.4615    40.651668    302.48155 
   30900   0.96072231   -9320.9311   -8.3308391    298.21661 
   30910   0.96034572   -9324.2341   -162.04413    301.49401 
   30920   0.96012587   -9327.2465   -178.08072    302.41595 
   30930   0.96011364   -9330.3435   -133.13933    303.31557 
   30940   0.96024058   -9333.6104    87.048767    301.81103 
   30950   0.96026327   -9336.8961    350.49513    295.03579 
   30960   0.95990514   -9340.3414    238.76475    296.82937 
   30970   0.95924226   -9343.1921    56.844651     294.2235 
   30980   0.95850306   -9345.7135   -216.55765    297.31856 
   30990   0.95797621   -9347.8176   -310.98127     298.6139 
   31000   0.95780308    -9349.741   -307.57824    298.86289 
   31010   0.95799982   -9351.6063    -324.7558      301.459 
   31020   0.95858155   -9353.6454   -204.09614    304.76671 
   31030   0.95940968   -9355.8554     78.65937    304.20489 
   31040   0.96018927   -9358.4247    228.76821    304.85988 
   31050   0.96071422   -9360.8672    355.92735    299.04729 
   31060   0.96085842   -9363.3751    180.56403      299.446 
   31070    0.9608018   -9365.7583   -148.42309    305.79494 
   31080   0.96088827   -9367.7595    -176.3812    304.07533 
   31090   0.96118745   -9370.1564   -51.509842     300.6067 
   31100   0.96155252   -9372.4087    158.35965    296.11945 
   31110   0.96175598   -9374.7527    224.40329    294.89839 
   31120   0.96170279   -9377.0126    162.02044    298.73358 
   31130   0.96143829   -9379.1807    126.93687    302.30455 
   31140   0.96100001   -9381.5114    137.15345    302.99307 
   31150   0.96037643   -9383.6838     170.9019    297.17502 
   31160   0.95956746   -9385.9026   -62.426039    295.04442 
   31170   0.95881625   -9387.6032   -315.18496    298.52623 
   31180    0.9583891   -9388.9023   -242.91982    297.27315 
   31190   0.95825033   -9390.4028   -190.56771     299.3757 
   31200   0.95834365   -9391.8653    -191.4589     299.3129 
   31210   0.95866769   -9393.2101   -141.16895    297.92908 
   31220   0.95916686   -9394.7346    -46.77312    297.84785 
   31230   0.95973209   -9396.2568    89.415332     296.4621 
   31240   0.96021508   -9397.7415    183.90137    296.77284 
   31250   0.96049629   -9399.1549    201.65729    297.43394 
   31260   0.96054996   -9400.6451    135.59202    299.01749 
   31270   0.96043849   -9402.2985    64.144235    302.32187 
   31280   0.96022743   -9403.5934    104.24861    296.72869 
   31290   0.95992133   -9405.1176   -107.16146    300.50687 
   31300   0.95971015   -9406.1143   -128.99028    292.13246 
   31310   0.95967881   -9407.2582   -261.68979    295.04221 
   31320   0.95993818   -9408.1043   -229.83306    297.93898 
   31330   0.96047888   -9409.0838    -126.1517    301.74396 
   31340   0.96118021    -9410.313    22.955691    305.44812 
   31350    0.9618808   -9411.5232    164.82015    300.03368 
   31360   0.96242684   -9413.1857    148.34673    301.23524 
   31370   0.96278304   -9414.6999    324.04118    298.48413 
   31380   0.96276958   -9416.5021    392.48466    296.81959 
   31390   0.96230223   -9418.3522    199.15407    299.48353 
   31400   0.96156326    -9419.996    35.844404    297.55998 
   31410   0.96076345   -9421.3394   -124.07294    291.53065 
   31420   0.96010876    -9422.429   -377.08363    296.22478 
   31430   0.95984688   -9423.2834   -284.75267    297.56945 
   31440   0.95991226   -9424.3899   -68.912975    296.67877 
   31450    0.9600641   -9425.2503    131.86073    292.95103 
   31460   0.96009075   -9426.3178      78.1038    293.34475 
   31470   0.96003592   -9427.3319   -122.77629     300.4946 
   31480   0.96008685   -9428.0309   -33.834632    296.89309 
   31490   0.96018071   -9428.8177    120.41681    291.51512 
   31500   0.96014886   -9429.6627    140.18018    289.76561 
   31510     0.959973    -9430.219   -91.041114    294.95376 
   31520   0.95988152   -9430.5859   -223.62175    302.45799 
   31530   0.96001604   -9430.8451    2.8814708     297.5409 
   31540   0.96018441   -9431.2468    29.916396    293.85801 
   31550   0.96034701   -9431.5866   -145.61332    297.70221 
   31560   0.96066749   -9431.7906   -132.38363    298.65983 
   31570   0.96116424   -9432.2217    -90.26167    299.08931 
   31580   0.96178846   -9432.5641   -20.754172    300.08962 
   31590   0.96246044   -9433.1694    98.085936    298.47901 
   31600   0.96305016   -9433.8477    164.98606    294.09641 
   31610   0.96349109   -9434.4346    34.849739    299.16095 
   31620   0.96389161   -9435.2328   -25.686321     306.5131 
   31630   0.96430118   -9436.2219    230.21334    299.75344 
   31640   0.96447312   -9437.4769    357.51273     294.2398 
   31650    0.9642509   -9438.8851    165.55273    296.85079 
   31660   0.96382001   -9440.2717   -102.20486    302.61871 
   31670    0.9634557   -9441.4995   -62.759148    297.59312 
   31680   0.96315964    -9442.916    2.9216304    293.11184 
   31690   0.96285581   -9444.6453   -15.592955    295.65269 
   31700   0.96254352    -9446.517    61.210737    295.43347 
   31710   0.96214485   -9448.5079    152.74584     287.2674 
   31720   0.96158181   -9450.5122   -39.591012    289.74263 
   31730   0.96103434   -9452.2563   -242.83157    296.88043 
   31740    0.9607307   -9453.9457    -234.8535    293.83303 
   31750    0.9607021   -9455.7174    -168.6758     289.0033 
   31760   0.96088569    -9457.698   -134.15976    295.52164 
   31770   0.96120516   -9459.7176    145.80214    294.48728 
   31780   0.96137612   -9462.0273     324.6115    288.75557 
   31790   0.96118734   -9464.3333    237.11265    288.04421 
   31800   0.96070953   -9466.5609    71.870998    290.30588 
   31810   0.96011903   -9468.5321   -38.886758    293.07677 
   31820   0.95953548   -9470.3361   -34.824343    291.53348 
   31830   0.95898313   -9472.2358   -110.99579    292.33627 
   31840   0.95853629   -9473.8489   -153.15656    292.91071 
   31850   0.95825873   -9475.4273   -176.91614    292.58247 
   31860   0.95817976   -9476.7245   -161.35391    292.44108 
   31870   0.95829008   -9478.1431   -95.633663    294.24339 
   31880   0.95851337     -9479.56    -12.96801    295.59125 
   31890     0.958764   -9481.1655    64.808102    294.51899 
   31900   0.95894053   -9482.5416    184.51973    285.44476 
   31910   0.95894361   -9483.8487   -13.469356    288.82446 
   31920   0.95895409   -9484.6245   -231.90545    295.27865 
   31930   0.95922964   -9485.2187   -285.36225    298.47327 
   31940   0.95983577   -9485.8106   -66.883969    291.79984 
   31950   0.96057225    -9486.624    14.348617    294.34692 
   31960   0.96130727   -9487.1278    118.47637     293.3112 
   31970   0.96194005   -9487.8591    116.66935    294.86182 
   31980   0.96245556   -9488.2126    79.570084    293.42224 
   31990   0.96290537   -9488.5332    3.0525514    292.40293 
   32000   0.96334842   -9488.8018    40.598652    293.43855 
   32010   0.96374731   -9488.6544    153.69129    292.10805 
   32020   0.96396785   -9488.4775    309.67185    288.53244 
   32030   0.96382948   -9488.3512    367.80844    289.92816 
   32040    0.9632538    -9487.991    271.09398    292.45504 
   32050   0.96232845   -9487.5634    184.45775    288.91229 
   32060   0.96116113    -9486.771    32.688177     291.0297 
   32070   0.95991007   -9485.4317   -59.061364    289.21965 
   32080   0.95871274   -9483.7102   -232.71359     288.3172 
   32090   0.95776126    -9481.392   -372.34338    289.58958 
   32100   0.95721173   -9478.6244   -316.01568    288.71983 
   32110   0.95702629   -9475.6239   -219.28095    288.10229 
   32120   0.95711636   -9472.3787   -240.90453     290.7484 
   32130   0.95750541   -9468.9127   -271.29053     295.3887 
   32140   0.95820362   -9465.2098     -63.7398      292.044 
   32150    0.9590225   -9461.5401    26.088359    293.70797 
   32160   0.95982897   -9457.6176    92.243268    294.55839 
   32170   0.96053821   -9453.7584    224.20292    294.79587 
   32180   0.96099602   -9449.7744    342.01272    291.92965 
   32190   0.96107174   -9445.7402     290.7653    290.69413 
   32200    0.9608102   -9441.8131    85.646983    299.30326 
   32210   0.96040302   -9437.4831    119.57671    295.63607 
   32220   0.95986427   -9433.5247    55.817713    295.18773 
   32230    0.9592425    -9429.433   -48.214644    295.43211 
   32240   0.95867152   -9425.2939   -211.33531    295.43531 
   32250   0.95833232   -9420.9422   -330.34557    296.59062 
   32260   0.95837891   -9416.6962    -393.8983     300.7514 
   32270   0.95888918   -9412.7666   -301.85492    300.18731 
   32280   0.95978096   -9409.3938    -142.2352    297.82335 
   32290   0.96087399   -9406.3474    27.880956    300.39732 
   32300   0.96195967   -9403.3669    247.81783    295.87667 
   32310   0.96281353   -9400.7014    216.68791    297.74975 
   32320   0.96343022    -9398.186    184.83277    296.25111 
   32330   0.96385799   -9395.7194    96.640665    295.99656 
   32340   0.96418497   -9393.2538   -31.228467    301.73404 
   32350   0.96453449   -9390.6885    42.501166    302.39078 
   32360   0.96484331   -9388.5997    162.43668    301.00462 
   32370   0.96497674   -9386.7515    192.30251    301.98444 
   32380   0.96488987   -9385.3463    117.21494    305.84899 
   32390   0.96463464   -9384.0236     174.0916    301.58727 
   32400   0.96417232   -9383.0916    156.73294    301.87523 
   32410   0.96350185   -9382.2381    124.30654    304.16149 
   32420   0.96263838   -9381.6232    202.13953    301.19878 
   32430   0.96152055   -9381.2833    122.29357    300.09883 
   32440   0.96022296   -9380.9132   -70.009139    301.41468 
   32450   0.95897025   -9380.2717   -306.73381    301.72882 
   32460   0.95803118   -9379.4747   -405.82171    301.08623 
   32470   0.95753056   -9378.6737   -273.98832    299.88611 
   32480   0.95734434   -9378.1861   -112.46894    299.65423 
   32490   0.95729938    -9377.883    9.6276907    296.60284 
   32500   0.95723509   -9377.4729    184.94589    287.75935 
   32510   0.95699848   -9377.2131    -56.15028    295.00423 
   32520   0.95679684   -9376.4598   -252.35722    300.71633 
   32530   0.95687996   -9375.6458   -279.21861    300.14324 
   32540   0.95730106   -9375.0477   -237.66266    304.75547 
   32550   0.95800249   -9374.5255    31.446052    297.79586 
   32560   0.95872867   -9374.1665    89.511191    297.96104 
   32570   0.95937741   -9374.0592    56.881704    305.94107 
   32580   0.95995709   -9374.1052    174.78682    306.33353 
   32590    0.9603394   -9374.3788    361.70851    301.36357 
   32600    0.9603094   -9374.9725    462.70123    296.74829 
   32610   0.95974786   -9375.6465    308.30316    293.13381 
   32620   0.95881483   -9376.1009   -102.04872    301.38015 
   32630   0.95794629   -9376.0481   -366.35711    306.18484 
   32640    0.9574652   -9375.9978   -374.59074    303.38844 
   32650   0.95740978   -9376.4473   -239.61854    303.60594 
   32660   0.95763078   -9376.9644    29.534566     295.8408 
   32670    0.9578559   -9377.7971    82.888888    297.33721 
   32680   0.95798222   -9378.7463    114.05973    301.83918 
   32690   0.95796763   -9379.6879    193.84029    298.25186 
   32700   0.95773546   -9380.9873    118.63363    304.50178 
   32710   0.95732424   -9382.5151    196.63907    303.83415 
   32720   0.95666286   -9384.1988    264.99016    294.84579 
   32730   0.95570037   -9385.9522   -11.778973    294.12532 
   32740   0.95472384   -9387.2756   -381.32973    300.47443 
   32750      0.95414   -9388.3985   -476.64625    298.93842 
   32760   0.95410497   -9389.7612   -407.70957    300.92757 
   32770   0.95452769    -9391.309   -49.016664    298.64403 
   32780   0.95504049   -9393.3811    238.87534    293.19655 
   32790    0.9553146   -9395.4895     249.4523    290.33565 
   32800   0.95532928   -9397.6585   -48.702631    295.17807 
   32810   0.95539697   -9399.6353   -309.90746    302.19536 
   32820   0.95580037   -9401.8228   -203.22289    302.87396 
   32830   0.95644376   -9404.3939    114.74088    297.20019 
   32840   0.95698548   -9407.5207    262.98913    299.31738 
   32850   0.95722512   -9410.7859    320.48536    297.41494 
   32860   0.95711251   -9414.3749    140.24796    297.75648 
   32870   0.95682526   -9417.9222   -42.811274    299.07374 
   32880   0.95657804   -9421.6977   -194.56132    304.78518 
   32890   0.95654318   -9425.6693   -218.62727     301.4849 
   32900   0.95678943   -9430.2186   -328.01852    299.72431 
   32910   0.95743234   -9434.8361   -359.20826    298.54936 
   32920   0.95852267   -9440.1194   -269.25899    302.41421 
   32930   0.95993601   -9445.4127    106.27105    297.88183 
   32940   0.96127928   -9451.1026    350.24466    296.19492 
   32950   0.96224746   -9456.6502    393.27083    293.79194 
   32960   0.96280246   -9462.1085    127.76994    297.21821 
   32970   0.96319648   -9467.4449    -12.22894    303.27873 
   32980   0.96357417   -9472.5418    199.69461    295.93674 
   32990   0.96373871   -9477.6861    306.60302    291.18603 
   33000   0.96354795   -9482.2395    286.80435    288.56136 
   33010   0.96302738    -9486.432     71.89759     293.1751 
   33020   0.96239641    -9490.147   -87.449468    292.38247 
   33030   0.96185827   -9493.1649   -230.36692    288.68374 
   33040   0.96158489   -9495.4441   -359.40976    288.70153 
   33050   0.96172899    -9497.466   -368.14606    292.64524 
   33060   0.96229786   -9499.2299   -184.65384     290.9547 
   33070   0.96312023   -9500.9476   -88.915974     294.6057 
   33080    0.9640568   -9502.4307    90.145347    293.64956 
   33090   0.96490527   -9503.7573    295.82251    290.57701 
   33100   0.96542698   -9505.1447     387.2108    293.94547 
   33110   0.96549108   -9506.2036    463.92681    287.70033 
   33120   0.96503956   -9507.1916     233.9736    289.63028 
   33130   0.96428415   -9507.4947    17.434987    289.53082 
   33140   0.96350334   -9507.4354   -299.35204     294.0497 
   33150    0.9630281   -9506.8969   -354.44603     292.2013 
   33160   0.96296212    -9506.193   -229.18488      287.074 
   33170   0.96318043    -9505.491   -133.40921    288.81566 
   33180   0.96356196    -9504.492   -8.9240722    287.67022 
   33190   0.96398197   -9503.3419   -5.0856863    285.94524 
   33200   0.96443594   -9501.8952   -129.42281    288.93271 
   33210   0.96506546    -9500.218   -283.61024    298.64573 
   33220   0.96601597   -9498.5244   -79.140134    296.55668 
   33230   0.96709319   -9497.0613    225.17523    291.80045 
   33240   0.96794206    -9495.554    446.62956      288.421 
   33250   0.96828869   -9493.9572     527.2568    285.76905 
   33260   0.96803017   -9492.3231    339.80494    288.81232 
   33270   0.96735861   -9490.3084     55.25103    292.44087 
   33280   0.96658686   -9487.8002   -112.52569     294.3554 
   33290   0.96589829   -9485.1388   -29.404888    290.66281 
   33300   0.96523223   -9482.5024    21.458266    285.37095 
   33310   0.96454603   -9479.6433   -178.44997    290.81915 
   33320   0.96403944   -9476.4583    -292.4718    296.92646 
   33330   0.96383653   -9472.9989   -129.79201    295.07261 
   33340     0.963801   -9469.9904   -46.105641    299.50741 
   33350   0.96378955   -9467.0896    238.95592    291.89372 
   33360   0.96352111   -9464.7843    292.74677    291.31563 
   33370   0.96289508   -9462.2541    207.88079     290.2583 
   33380   0.96200205   -9459.6444    83.373566     287.0833 
   33390   0.96097112   -9456.6846   -16.488956    284.96574 
   33400    0.9599377   -9453.5384   -261.21918    290.44818 
   33410   0.95915838   -9449.8711   -391.11352    293.10473 
   33420   0.95881371   -9446.1796   -408.51772    296.88872 
   33430   0.95893582    -9442.661   -242.97802    297.32986 
   33440   0.95935039   -9439.5616    51.042421     289.3648 
   33450   0.95974392   -9436.7623    174.21349    289.30895 
   33460   0.95993974   -9433.9948    239.27986    291.95998 
   33470   0.95985329   -9431.4327    303.64165    288.66285 
   33480      0.95942   -9428.7793    160.94737    290.39967 
   33490   0.95879864   -9425.9877   -221.68609    297.23586 
   33500   0.95839255    -9422.821   -421.82492     297.8284 
   33510    0.9584609   -9419.6923   -362.72942    295.83819 
   33520   0.95895534    -9417.078   -123.39294      294.339 
   33530   0.95963939   -9414.7771    1.0387249    294.94887 
   33540   0.96036475   -9412.4075   -16.314416    293.90558 
   33550   0.96115718   -9410.3126   -117.67514     297.0254 
   33560   0.96210416   -9408.2431   -30.455167    300.35781 
   33570   0.96312177   -9406.5274    110.44171    303.56025 
   33580    0.9640417   -9405.0217    292.64061    299.83947 
   33590   0.96465588    -9403.761    386.56178    296.44513 
   33600   0.96483533   -9402.6431    333.27748     301.2775 
   33610   0.96460576   -9401.7725    295.51127    302.02801 
   33620   0.96402146   -9400.9577    189.24207    295.66924 
   33630   0.96321612   -9400.2143   -96.158427    298.43771 
   33640   0.96246804   -9399.1555   -167.54085    296.87506 
   33650   0.96190362    -9397.952   -250.14016    298.68866 
   33660   0.96161739   -9396.7454   -332.04169    303.24133 
   33670   0.96170484   -9395.5397   -240.25765    300.63938 
   33680   0.96208531   -9394.9215   -50.063627    298.34197 
   33690   0.96253378   -9394.2946    183.62858    293.51235 
   33700    0.9628018    -9393.882    227.23519    295.41139 
   33710   0.96278676    -9393.361    301.31698    298.19353 
   33720   0.96241274   -9392.9036    279.52138    300.49696 
   33730   0.96170352   -9392.6097    90.653144    302.94711 
   33740   0.96085836   -9392.2131   -33.321108    295.31778 
   33750   0.96005457   -9391.6568   -308.97713    298.92233 
   33760   0.95955691   -9390.6338   -251.44752    293.52942 
   33770   0.95936724    -9389.666    -226.7028    290.27273 
   33780    0.9594491   -9388.6695   -231.65873    293.22248 
   33790   0.95979482   -9387.2589   -91.549883     290.4413 
   33800   0.96028377   -9386.0253   -109.41951    295.52419 
   33810   0.96089962    -9384.451   -5.2865093    293.86208 
   33820   0.96155629   -9383.1138    4.0897831    299.81855 
   33830   0.96220358     -9381.51    148.39342    298.41036 
   33840   0.96269965   -9380.1779    256.15887    294.67654 
   33850   0.96291806   -9378.8453    177.50589    296.39942 
   33860   0.96292088   -9377.3382    113.29372    296.10488 
   33870   0.96278968   -9375.7223    43.084288    298.28947 
   33880   0.96259292    -9373.939    21.197561    300.14493 
   33890   0.96238022   -9372.2417   -105.45339    306.82185 
   33900   0.96226921   -9370.5393   -119.71688    308.25251 
   33910    0.9622941   -9369.2973   -55.643612    308.24278 
   33920   0.96237884   -9368.4394    81.656774    307.66009 
   33930   0.96235129   -9367.8959    352.12363    300.26767 
   33940     0.961937   -9367.8233    319.06246    301.78434 
   33950   0.96113265   -9367.6302    131.04428    301.86332 
   33960    0.9601432   -9367.4094   -20.103059    301.26738 
   33970   0.95914763   -9367.0792   -118.37252    301.17059 
   33980   0.95827179   -9366.6946   -188.07903    300.67458 
   33990   0.95760184   -9366.5566   -251.76103    304.26565 
   34000   0.95720258   -9366.3791   -202.63506    303.94233 
   34010    0.9570296   -9366.3805   -50.191138    300.36269 
   34020   0.95691846   -9366.6363    72.271417    299.10029 
   34030   0.95672709   -9366.9887    80.076329      296.764 
   34040   0.95646234    -9367.454   -126.17949    301.10411 
   34050   0.95632487   -9367.6995   -229.05923    300.81258 
   34060    0.9564547   -9368.0656   -217.58982    297.12116 
   34070   0.95684779    -9368.558   -126.62909    296.30175 
   34080   0.95739311   -9368.9677    73.595993    293.86834 
   34090   0.95788423   -9369.7976    147.66948    299.35519 
   34100   0.95819509   -9370.5347    287.51376    294.87026 
   34110   0.95819546   -9371.2429    215.52122    296.70505 
   34120   0.95793425   -9372.0213    117.73518    298.23658 
   34130   0.95750832   -9372.7873    160.87427    292.97115 
   34140   0.95688521   -9373.6808    141.28287    289.73921 
   34150   0.95608017   -9374.2691     14.41948    288.91557 
   34160   0.95524462   -9374.3911   -258.58124    291.72721 
   34170   0.95469346   -9373.9783   -530.30331    299.15885 
   34180   0.95473047   -9373.4123   -495.24358    303.18243 
   34190   0.95534621   -9373.3265   -213.44155    302.13794 
   34200   0.95624543   -9373.4948    102.73762    296.54927 
   34210   0.95706877   -9373.8578    286.16249    295.56824 
   34220   0.95758474   -9374.3488    361.73675    296.27894 
   34230   0.95767735   -9374.8129    397.74547     297.1193 
   34240   0.95730569   -9375.4242     286.9385    300.11098 
   34250   0.95658324   -9375.7429    59.682011    298.42303 
   34260   0.95577887   -9375.9334   -285.42362    300.70309 
   34270   0.95526147   -9375.9878   -388.83156    299.87155 
   34280   0.95518277   -9376.0731   -323.94425    301.82082 
   34290   0.95547708   -9376.3967   -116.77727    301.46801 
   34300   0.95593369   -9377.0577     56.59109    299.72165 
   34310   0.95635093   -9377.8358    115.89463    298.86953 
   34320   0.95666516   -9378.7883    4.0467279     303.3367 
   34330   0.95698112   -9379.7174   -66.464045     300.4017 
   34340   0.95738689   -9380.9107   -39.987692    299.67485 
   34350    0.9578438   -9382.3725    77.079557    302.85858 
   34360   0.95822832   -9383.7728     150.3161    299.77225 
   34370   0.95847128   -9385.6626    26.787175    303.90217 
   34380   0.95866489   -9387.3393    80.618126    298.53007 
   34390   0.95879565   -9389.4676    2.9098175    303.72688 
   34400   0.95889662   -9391.6161    131.48581    298.63458 
   34410   0.95886368   -9393.9264    169.03534    294.75045 
   34420   0.95863241   -9396.3832    90.705115    298.04275 
   34430   0.95826985   -9398.7971    48.595335    298.42696 
   34440   0.95784478   -9401.1603   -88.433361    299.13607 
   34450   0.95750906   -9403.4167   -245.82643    299.28996 
   34460   0.95745687   -9405.7941   -382.19634    302.75087 
   34470   0.95785039   -9408.3285   -369.18688    302.20775 
   34480   0.95870025   -9411.2866   -186.78566     297.8745 
   34490   0.95981251   -9414.3636    105.62199    295.39667 
   34500   0.96084542   -9417.4378    403.88426    294.79995 
   34510   0.96145396   -9420.6326     458.3941    295.57976 
   34520   0.96154403   -9423.7403    324.99059    293.22106 
   34530   0.96125316   -9426.5792    92.282707    292.98953 
   34540   0.96083411   -9429.2312   -119.08384    296.47113 
   34550    0.9605207   -9431.5751   -161.24418    298.50522 
   34560   0.96039022   -9434.0129   -158.93858    298.94464 
   34570   0.96043328   -9436.3604   -22.612622    291.85419 
   34580   0.96053108   -9438.7004   -33.699661    291.89264 
   34590   0.96067668   -9440.8166   -122.85015    295.60898 
   34600   0.96096675     -9443.13   -139.47373    301.56688 
   34610   0.96140568   -9445.3225    115.12681    294.25225 
   34620   0.96175883    -9447.517    122.09497    297.77809 
   34630   0.96197272   -9449.8521    70.601733    302.19541 
   34640   0.96209515   -9452.0717    142.41192    294.50708 
   34650   0.96208055   -9454.3681   -9.3846733    295.66464 
   34660   0.96206809   -9456.4315   -132.47047    297.33258 
   34670   0.96219048   -9458.3345   -20.035165    290.56318 
   34680   0.96235605   -9460.2601    50.999245    290.18922 
   34690   0.96246305   -9462.0308    90.787121    296.29724 
   34700   0.96244466    -9463.776    249.48941    289.71967 
   34710   0.96215294   -9465.3814     211.8396    284.57056 
   34720   0.96162115   -9466.6873   -109.23732    293.57192 
   34730   0.96117076   -9467.4501   -215.39258    294.36729 
   34740    0.9609503   -9468.0174   -102.33279    293.07546 
   34750   0.96082612   -9468.5332    177.97147    287.16642 
   34760   0.96051499   -9469.0092    170.76303    287.06728 
   34770   0.96000871   -9469.2294   -36.214659    288.86965 
   34780   0.95953096   -9468.9326   -216.69061    288.20994 
   34790    0.9592998   -9468.1072   -336.19467    291.04602 
   34800   0.95944418   -9467.1255   -230.78355    291.01365 
   34810   0.95986941   -9466.1189   -44.693146    288.48254 
   34820   0.96037443   -9464.7269    42.987676    287.83664 
   34830   0.96085765   -9463.0643   0.91270025    292.01025 
   34840   0.96133787   -9461.1882     81.35532    293.34322 
   34850   0.96172617   -9459.0838    231.62663    290.44197 
   34860   0.96186701   -9457.0612    178.08102     295.9331 
   34870    0.9617772   -9454.4445    183.20486    296.57892 
   34880   0.96147285   -9451.9502    127.87681    296.07409 
   34890   0.96099886   -9449.1586    97.511945    293.04069 
   34900    0.9603976   -9446.2648    76.176496    287.14377 
   34910   0.95971405   -9442.8697   -159.49589    294.79489 
   34920    0.9591794   -9438.9076   -259.21501    298.75018 
   34930   0.95892735   -9434.8241   -195.24314    298.07277 
   34940   0.95890278   -9430.7464   -103.13065    297.29979 
   34950   0.95900384   -9426.5602    1.5051288    293.29649 
   34960   0.95912205   -9422.4404   -10.911049     296.8877 
   34970   0.95924633   -9418.1014    7.1350619    302.49038 
   34980   0.95934144   -9413.8875    226.89015    295.76828 
   34990   0.95919116   -9410.0297    286.33925     289.3303 
   35000   0.95871502    -9405.954    103.19379    289.78444 
   35010   0.95810882   -9401.6554   -218.83659    295.84016 
   35020   0.95773344   -9396.7229   -466.33868    300.05481 
   35030   0.95788276   -9391.9531    -461.4411     303.2831 
   35040    0.9585761   -9387.6711   -232.52158    304.09297 
   35050   0.95958504   -9384.0577    6.1176015    303.91053 
   35060   0.96062728   -9380.8158     260.8397    302.01642 
   35070    0.9613915   -9378.1264    475.01101    299.08353 
   35080   0.96163493    -9375.919    399.42796    300.32435 
   35090   0.96141686   -9373.7756    187.25627    300.31044 
   35100   0.96096747    -9371.799   -8.4467105    301.98868 
   35110   0.96049179   -9369.8128   -60.681782    300.97849 
   35120   0.96008358   -9368.0567   -177.83254    301.01232 
   35130   0.95987254   -9366.4297   -279.69006    303.76642 
   35140   0.95997794   -9365.0156   -197.99609    300.45477 
   35150   0.96033028   -9363.9467   -76.651358    301.02485 
   35160   0.96077236   -9363.0298    146.04175     299.6194 
   35170   0.96107176   -9362.4422    215.29147    299.59438 
   35180   0.96114288   -9361.8707    45.753228    302.15945 
   35190   0.96116461   -9361.3143    -162.4991    306.97829 
   35200   0.96134793   -9360.9181   -75.804003    306.92626 
   35210   0.96161577   -9360.9856    202.73286     301.7401 
   35220   0.96166314   -9361.4749     356.5949    299.72684 
   35230   0.96129242   -9362.0697    335.73407    299.43534 
   35240   0.96051378   -9362.9519     142.5683    304.17683 
   35250   0.95950856   -9363.5025    85.442129    302.91255 
   35260   0.95835109   -9364.4023    117.18997    297.86388 
   35270   0.95702201   -9365.4498    14.194972    298.01657 
   35280   0.95561801   -9365.9036   -84.281048    293.28041 
   35290   0.95428498    -9366.218   -284.45661    290.19823 
   35300    0.9532611   -9365.8332   -558.79542    295.74116 
   35310   0.95285958   -9365.4385   -665.94446    303.87486 
   35320   0.95321277   -9365.0541   -413.07596    298.38742 
   35330   0.95410986   -9365.1812   -309.13788    300.35235 
   35340   0.95540179    -9365.529   -120.79567    302.03183 
   35350    0.9568782   -9366.0494    191.16558    298.65823 
   35360   0.95819007   -9366.6662    368.45134    299.43435 
   35370   0.95910685   -9367.4594    403.76261    301.50559 
   35380   0.95956868   -9368.2119    354.16962    302.54467 
   35390   0.95962157   -9369.2465    257.55894    303.91015 
   35400   0.95935974   -9370.2024    180.30877    300.50102 
   35410   0.95888531   -9371.2097    5.1251744    299.06652 
   35420   0.95837896   -9372.0566    -124.8601    300.75345 
   35430   0.95800166    -9372.824   -177.74916    296.57448 
   35440   0.95785146   -9373.7501    -399.6716    305.47271 
   35450   0.95814263   -9374.5205   -331.50527     305.0185 
   35460   0.95883894   -9375.8565   -139.82823    304.53701 
   35470   0.95970605   -9377.5398    185.17734    305.15819 
   35480    0.9603841   -9379.4233    461.72239    300.18959 
   35490   0.96055666   -9381.4802     482.1551    295.80721 
   35500   0.96018447    -9383.659    188.42633    300.48569 
   35510   0.95955975   -9385.5867   -54.569449     302.7895 
   35520   0.95895226   -9387.4733    -58.35152    301.61836 
   35530   0.95839205   -9389.4942   -24.884122     299.2705 
   35540   0.95785374   -9391.5316   -71.782934    296.57325 
   35550   0.95738986   -9393.5084   -165.99876     299.1042 
   35560   0.95710472   -9395.2902   -186.45726    298.17948 
   35570   0.95704035    -9397.139   -196.19513    297.27933 
   35580   0.95720733   -9399.0617   -174.08995    300.31357 
   35590   0.95758455   -9401.1401   -120.47354    300.95869 
   35600   0.95813485    -9403.422   -153.48498       302.92 
   35610   0.95887924    -9405.914   -64.036254    300.78694 
   35620   0.95972426   -9408.4286    124.97759    296.99591 
   35630   0.96045085   -9410.9547    254.22914    296.99267 
   35640   0.96089638   -9413.5009    334.39365    293.92528 
   35650   0.96098787   -9416.0131    105.18544    296.87307 
   35660   0.96096952   -9418.4854   -293.62999    310.21281 
   35670   0.96123197   -9420.9941   -112.30385    302.83235 
   35680   0.96165305   -9423.7675    117.61706    292.18146 
   35690   0.96197931   -9426.5799    76.491633    291.97196 
   35700   0.96221926   -9429.0471    18.662988    295.75451 
   35710   0.96243793   -9431.6334   -12.202992    298.60035 
   35720   0.96268113   -9434.0751   -43.066312    298.44353 
   35730   0.96298044   -9436.7053   -8.9136842    298.23876 
   35740   0.96329832   -9439.3557    38.877352    299.28322 
   35750   0.96357249   -9442.1601     88.24069     302.6824 
   35760   0.96373549   -9445.0672    191.23658    304.57188 
   35770   0.96367164   -9448.2571    298.10838    296.80871 
   35780   0.96328372   -9451.3704     142.8176    291.85577 
   35790   0.96272655    -9454.295    -169.4977    298.54372 
   35800   0.96231937   -9456.8248   -215.42195    299.71209 
   35810   0.96215087   -9459.4543   -156.94879     297.6184 
   35820   0.96218029   -9462.1554   -180.25013    298.78691 
   35830   0.96242532    -9464.642   -151.33311    297.69759 
   35840   0.96286094   -9467.2473   -67.482616     294.1925 
   35850   0.96339515   -9469.8157   -1.3076701    294.10757 
   35860   0.96393378   -9472.2431    130.98206    294.90379 
   35870   0.96433397   -9474.5553    216.16548     293.6911 
   35880   0.96450984   -9476.9337    91.822385    300.22882 
   35890   0.96454837   -9479.3074    137.14361    299.39447 
   35900   0.96442402   -9481.5766    186.82072    297.29561 
   35910   0.96408763   -9484.1064    72.839742    300.30539 
   35920   0.96362657   -9486.0735    198.92244    285.68509 
   35930   0.96295114   -9488.1634    92.745464    286.06767 
   35940   0.96214863   -9489.5044   -116.90522    289.29621 
   35950   0.96146159   -9490.1228   -299.70376    289.43876 
   35960   0.96111686   -9490.4692   -443.87918    293.39532 
   35970   0.96126238   -9490.4912   -282.65237    292.25639 
   35980   0.96175798   -9490.7117   -92.021725    290.53384 
   35990    0.9623912   -9490.6781    6.0289601     288.9966 
   36000   0.96303813   -9490.5896    86.417332    290.62949 
   36010   0.96358983   -9490.2124    214.93783    290.60226 
   36020   0.96391545   -9489.8669    186.65225    293.28075 
   36030    0.9640295   -9489.3073    94.992525    291.93085 
   36040   0.96404447   -9488.6327   -80.761009     295.6234 
   36050    0.9641279   -9487.8769   -21.356127    294.48474 
   36060   0.96422903   -9487.0619     153.9169    291.60224 
   36070   0.96417592   -9486.4918    85.400572    294.33995 
   36080   0.96400866   -9485.5093    64.777192    289.88875 
   36090   0.96377138   -9484.7714   -9.1039631    290.29285 
   36100   0.96353563   -9483.8242   -95.166886    295.52867 
   36110   0.96340059   -9482.6393   -148.67543    297.91503 
   36120   0.96344014    -9481.699   -157.21588    298.22461 
   36130   0.96365544   -9480.6589    15.365796    290.03286 
   36140   0.96389357   -9479.9066   -25.615844    294.34602 
   36150   0.96414624   -9479.0885     46.34938    294.61109 
   36160   0.96436339   -9478.2363    73.195842     293.0776 
   36170   0.96450797   -9477.4852    11.280084    297.31798 
   36180   0.96461424   -9476.6181    161.77271    289.50341 
   36190   0.96455381   -9475.7665    142.39933     290.9165 
   36200   0.96431896   -9474.9202    53.473529    297.07331 
   36210   0.96401152   -9474.0144   -28.058021    300.08648 
   36220   0.96370726   -9472.9948    56.466311    292.47699 
   36230   0.96333953   -9472.2334    76.065135    291.13086 
   36240   0.96285091   -9471.3071    141.27392    290.04582 
   36250   0.96219148   -9470.0965    28.230906    285.02264 
   36260   0.96150905   -9468.6357   -411.91927     296.5236 
   36270   0.96124095   -9466.4856     -416.187     298.8326 
   36280   0.96145819   -9464.5994   -211.76974    297.52333 
   36290    0.9619635   -9463.1692   -176.95997    301.64197 
   36300   0.96268501   -9461.7161   -28.242578    296.39056 
   36310   0.96348664   -9460.4746    63.437669    295.46724 
   36320   0.96426408   -9459.1828   -29.489141    302.21261 
   36330   0.96509262   -9457.9233    -25.26526    304.42999 
   36340   0.96596751   -9456.9158    176.68385    300.23095 
   36350   0.96666221   -9456.1989    406.33099    295.76193 
   36360   0.96692181   -9455.6935    361.00874    298.31452 
   36370   0.96674799   -9454.7502    232.66968    299.37273 
   36380   0.96628825   -9454.0247    86.597115    300.46805 
   36390   0.96568783   -9453.2013    78.272194    296.90029 
   36400   0.96498165   -9452.3653    30.899202    294.50069 
   36410    0.9642129   -9451.4326   -41.680518    296.53294 
   36420    0.9634449   -9450.2689    38.466261    291.75066 
   36430   0.96261779   -9449.1516    21.894123    289.78781 
   36440   0.96175433   -9447.7591    -180.9052    294.68663 
   36450   0.96105931   -9445.8841   -266.16867    296.27408 
   36460   0.96065487   -9443.9364    -263.8602    293.39358 
   36470   0.96056623    -9441.807    -339.5136    298.42289 
   36480   0.96085489   -9439.7104   -200.97747    299.63657 
   36490   0.96139553     -9437.69    40.987745    292.77547 
   36500   0.96193119   -9435.6604    157.91368     289.2033 
   36510   0.96231546   -9433.5679     99.48965    292.96682 
   36520   0.96260155   -9431.2455   -80.123909     297.2442 
   36530   0.96297841   -9428.6236   -116.51004    295.77024 
   36540   0.96351122   -9425.9367   -77.647516    297.36567 
   36550   0.96414755   -9423.2611    48.911016    300.98681 
   36560   0.96472602    -9420.669    338.07731    297.14649 
   36570   0.96494487   -9418.3832    398.64299    297.25459 
   36580   0.96469754   -9416.1388    267.24959    301.05202 
   36590    0.9641102   -9413.6711    205.70041    296.76552 
   36600   0.96327131   -9411.4775    34.353728    300.94246 
   36610    0.9623269   -9408.8578    77.044315    293.48115 
   36620   0.96129878   -9406.4972   -161.93621    299.17109 
   36630   0.96041145   -9403.6568   -327.96607    301.75769 
   36640   0.95988138   -9400.6681   -319.02691    296.88913 
   36650   0.95973081    -9397.769    -306.8261    295.54207 
   36660   0.95994991   -9394.9702   -288.40279    296.34921 
   36670   0.96051752   -9392.1552   -204.44229    299.82967 
   36680   0.96133814   -9389.4625   -12.525292    299.62612 
   36690   0.96221858   -9387.0322    76.720696    302.56266 
   36700   0.96300869   -9384.6074    334.37548    298.67629 
   36710   0.96343934   -9382.5499      449.723    295.66553 
   36720   0.96337504   -9380.5227    224.04172     297.5791 
   36730   0.96302621   -9378.2271    31.532356    301.13975 
   36740   0.96259253   -9376.0658    106.96557    299.24263 
   36750   0.96202831   -9374.0166    102.25327      297.191 
   36760   0.96135405   -9371.7436   -156.25209    301.95888 
   36770   0.96084017   -9369.3449   -389.46483    307.84027 
   36780   0.96076058   -9367.0865   -424.32825    311.54834 
   36790   0.96116182   -9365.3218   -163.38118    307.76482 
   36800   0.96175992   -9364.1268    316.87728    293.64002 
   36810   0.96204745   -9363.1449    409.06218    292.15458 
   36820   0.96186166   -9362.2442    250.14216    297.66187 
   36830   0.96136915   -9360.9034    20.988811    297.58156 
   36840   0.96084982   -9359.3867   -311.83372     303.7473 
   36850   0.96065748   -9357.6753   -315.03867    307.84936 
   36860   0.96082029   -9356.3782   -102.39078    306.59671 
   36870   0.96111795   -9355.6612    65.825347    307.22573 
   36880   0.96134389   -9355.1465    209.83621    302.47554 
   36890   0.96135496   -9355.0587    102.03333     306.3359 
   36900   0.96122794   -9354.9152    67.746749    302.51735 
   36910   0.96102513    -9355.046    8.3005001    301.00378 
   36920   0.96080383   -9355.1892    -57.81953    302.01264 
   36930   0.96064972   -9355.4212   -154.28027    303.61902 
   36940   0.96067331   -9355.6334   -165.66423    299.90375 
   36950   0.96091175   -9356.0638   -224.95445    304.11857 
   36960   0.96139559   -9356.5242   -26.738025    299.54367 
   36970   0.96194591   -9357.3712     74.01161     298.6689 
   36980   0.96242985    -9358.386    74.345029    301.94358 
   36990   0.96282346   -9359.5804    197.88888    299.74011 
   37000   0.96300702   -9360.8036    246.76328    293.38595 
   37010   0.96292418   -9361.8858    98.644187    295.39467 
   37020   0.96270217    -9363.177    18.201259    299.88502 
   37030    0.9624404   -9364.3582   -30.879081      301.607 
   37040   0.96220894   -9365.8295   -111.07963    301.77382 
   37050    0.9621033   -9367.3344   -115.69355    298.49452 
   37060   0.96212759   -9369.0327   -9.7594903    294.06529 
   37070   0.96218054   -9370.9711   -9.2927895    296.82819 
   37080   0.96224856   -9373.0919   -75.495572     303.3787 
   37090   0.96238469   -9375.6983    28.155692    300.56942 
   37100   0.96249332   -9378.5007    170.76866    293.77088 
   37110   0.96241189   -9381.6937    227.25474    293.68312 
   37120   0.96204536   -9385.0124    272.31374    290.53191 
   37130   0.96136689   -9388.6448    42.992721     293.7365 
   37140   0.96060437    -9392.228   -169.16116    291.41416 
   37150   0.96000868   -9395.5753   -239.37649    288.18391 
   37160    0.9596862   -9398.8146   -282.68322    286.01904 
   37170   0.95971318   -9402.2439   -455.36663    295.63531 
   37180   0.96024808   -9405.6969   -286.28727    296.28998 
   37190   0.96114352   -9409.5671   -5.7108106    293.99282 
   37200   0.96208542   -9413.5196    179.25747    292.78026 
   37210   0.96287031   -9417.8676      121.714    298.45956 
   37220   0.96351187   -9422.0203    177.36745    294.65854 
   37230   0.96397918   -9426.5141    138.13361      296.085 
   37240   0.96428606   -9430.9445     109.5713    298.12141 
   37250   0.96445776   -9435.3014    186.21006    294.10959 
   37260   0.96442491   -9439.8018     141.5925    294.06507 
   37270   0.96422865   -9443.9617    31.717433    294.28383 
   37280   0.96398421   -9448.0551   -48.102771    297.01994 
   37290   0.96376732   -9451.8932    44.728344    291.90719 
   37300    0.9635037   -9455.6375    34.793817    290.04261 
   37310   0.96319417   -9459.0098    -33.54924    291.39573 
   37320   0.96290928   -9462.0239   -43.007691    290.06366 
   37330    0.9626768   -9464.8222   -110.27737    292.62153 
   37340   0.96257409    -9467.462   -247.25254    299.89076 
   37350    0.9627352   -9469.9262    -181.0125    299.60401 
   37360   0.96310624   -9472.3879    75.301972    291.96705 
   37370   0.96342987   -9474.8048    116.00982    290.79897 
   37380   0.96364683    -9476.942   -24.272806     291.7491 
   37390   0.96389193   -9478.8417   -57.524529    292.21416 
   37400   0.96418884   -9480.4925    185.14032    284.96953 
   37410   0.96427825    -9481.881    396.61146     281.2941 
   37420   0.96390229    -9483.129    392.51243    284.10147 
   37430   0.96305396   -9484.0201    152.06336    288.08916 
   37440    0.9619965    -9484.319   -160.05528    291.38928 
   37450   0.96108591   -9483.9635     -350.878    291.82971 
   37460   0.96055161   -9483.2553   -341.89325    291.50619 
   37470   0.96039453   -9482.4944   -158.86549    291.05961 
   37480   0.96041998   -9481.7277    48.830624    289.56387 
   37490   0.96039925   -9480.7535     167.6428    284.09446 
   37500   0.96021153   -9479.5622    7.0037131    287.43476 
   37510   0.96000016   -9477.8239   -127.34341    289.85402 
   37520    0.9599183   -9475.7524   -122.48319    288.77772 
   37530   0.95999242   -9473.5669   -197.00119    296.58962 
   37540   0.96029178   -9471.0237   -195.13985    298.16213 
   37550   0.96084276   -9468.5857   -161.65962    297.95846 
   37560    0.9616035   -9466.2866   -32.212253    296.02255 
   37570   0.96244024   -9464.0263    72.133642    296.24281 
   37580   0.96321529   -9461.8643    189.83922     296.9499 
   37590   0.96378897   -9459.5328    265.89698    298.37621 
   37600   0.96406522   -9457.3686    282.05069    297.09218 
   37610   0.96401609   -9455.0823    275.08612    291.59037 
   37620    0.9636454   -9452.6595    176.38907     291.2234 
   37630   0.96304475   -9450.0707     53.96624    297.07407 
   37640   0.96233345   -9447.3435    74.733386    294.55047 
   37650   0.96152828   -9444.5474   -35.385009    294.47137 
   37660   0.96074637   -9441.3947   -191.89035    295.22361 
   37670   0.96015707   -9438.0799   -205.66453    293.35573 
   37680   0.95978218   -9434.7656   -83.373489    290.58599 
   37690    0.9595068    -9431.402    -38.47003    288.11604 
   37700   0.95927938   -9427.7422   -80.637748    288.59334 
   37710   0.95913959   -9424.0474   -113.81861    291.62029 
   37720   0.95912757   -9420.1438   -92.603767    292.47083 
   37730   0.95923009   -9416.2407   -66.644746    292.31406 
   37740   0.95941819   -9412.1587   -39.832087    290.87031 
   37750   0.95968175   -9408.3971   -157.20952    299.35673 
   37760     0.960107   -9404.4609   -14.255974    295.56331 
   37770   0.96058594   -9401.1081    28.790872    298.47092 
   37780   0.96103408   -9397.9972    90.809835      298.403 
   37790    0.9613959   -9395.0515    116.39005    294.64358 
   37800   0.96164666   -9392.3818    5.0078318    301.80534 
   37810   0.96187858   -9389.9485    35.025881    302.97178 
   37820   0.96208676   -9387.9076    30.816298    303.66987 
   37830   0.96225842   -9386.1481    50.713532    299.36031 
   37840   0.96239404   -9384.8132   -78.168569    304.63611 
   37850   0.96260484   -9383.5601   -44.112574    302.29181 
   37860   0.96287741   -9382.5019    50.686137    295.10931 
   37870   0.96313436   -9381.7513   -70.283698    301.01119 
   37880   0.96346225   -9380.9391   -34.228994    302.44796 
   37890   0.96384559   -9380.5042    38.062132    305.46572 
   37900   0.96417613   -9380.2734    215.37579    304.75419 
   37910    0.9642599   -9380.4107    366.62398    301.66048 
   37920   0.96393409   -9380.8493    239.66087    302.19412 
   37930   0.96331502   -9381.0902    6.4234407    301.42943 
   37940   0.96264822     -9381.51   -67.571503    302.14384 
   37950   0.96201472   -9381.9419    71.428961    298.07667 
   37960   0.96128508   -9382.5112    136.47236    292.74609 
   37970   0.96039957   -9382.8968   -88.006284    293.39913 
   37980   0.95959305   -9382.8795   -359.98919    297.32711 
   37990   0.95916655   -9382.5157   -344.00045    292.96489 
   38000   0.95914302   -9382.0563   -249.86628    290.16792 
   38010   0.95943448   -9381.6513    -235.3733     297.1547 
   38020    0.9599994   -9381.0851   -73.794433    297.23657 
   38030   0.96068113   -9380.6569    19.077179    298.07555 
   38040   0.96136666   -9380.4591    72.703114     301.2093 
   38050   0.96196704   -9380.3692    290.43476    295.35975 
   38060   0.96225917   -9380.1811    366.52903    288.17023 
   38070   0.96216482    -9379.876    15.535628    295.82843 
   38080   0.96203483   -9379.0728   -292.46371     301.3212 
   38090   0.96222414   -9378.2654   -305.06745    303.57142 
   38100   0.96276355   -9377.7016   -66.022719    300.64807 
   38110   0.96340622   -9377.4119    185.00312    297.94686 
   38120   0.96386894   -9377.2732    233.44429     296.3007 
   38130   0.96408118   -9377.2444    114.80457    297.28887 
   38140   0.96415862    -9376.935    27.635304    298.73697 
   38150   0.96420391   -9376.4814   -51.238151    298.96494 
   38160   0.96431542   -9375.9597   -133.99929    300.88172 
   38170   0.96457475   -9375.7937   -110.85051     304.6654 
   38180   0.96495359    -9375.535    81.101719    301.91519 
   38190   0.96526341   -9375.7586    189.15005    305.24042 
   38200   0.96534036   -9376.2259    391.16995    300.81038 
   38210   0.96496311   -9376.8888    490.99827    292.20422 
   38220   0.96402906   -9377.9143    95.885658    302.44625 
   38230   0.96290722   -9378.3172   -128.77478     304.1575 
   38240   0.96189423   -9378.5766   -187.64177     299.6716 
   38250   0.96109709   -9379.0898   -386.93358    309.15318 
   38260   0.96069368   -9379.6005   -216.93457    301.78229 
   38270    0.9605709   -9380.5237   -166.62232    299.01757 
   38280   0.96064177   -9381.6671   -101.32743    301.22171 
   38290    0.9608234   -9382.8293     98.75156    296.67668 
   38300   0.96092102   -9384.2954    115.14634     298.4296 
   38310   0.96087343    -9385.837    162.50868    300.02604 
   38320    0.9606237   -9387.6957    208.21776    302.82326 
   38330   0.96009851   -9389.5937     323.6044     294.0558 
   38340   0.95920617   -9391.7458    112.05119     293.8056 
   38350   0.95815242   -9393.5184   -186.00187    299.88107 
   38360    0.9572591   -9394.9764   -213.27378    294.63843 
   38370    0.9565961   -9396.6248   -184.56422    292.18493 
   38380   0.95614427   -9398.2672   -251.61139    298.28219 
   38390    0.9559633   -9399.8483   -200.97418    297.94633 
   38400   0.95602141   -9401.5597   -90.169751    294.01763 
   38410   0.95619919   -9403.3873    5.9870979    288.09604 
   38420   0.95639289   -9405.0643   -51.586041    292.01325 
   38430   0.95664748    -9406.586   -115.69991    295.27302 
   38440   0.95704754    -9407.985   -86.167048     289.6223 
   38450   0.95758229    -9409.506    -144.5272    293.94384 
   38460   0.95830057   -9411.0068   -170.16897    299.59657 
   38470   0.95923239   -9412.6857   -72.492511    297.69938 
   38480   0.96028797   -9414.4246    55.902678    296.49887 
   38490   0.96131008   -9416.4266    162.03822     303.4516 
   38500   0.96214933   -9418.7348    349.10803    301.32506 
   38510   0.96261771    -9421.445    369.39602     299.1568 
   38520   0.96265912   -9424.2653    337.69984    294.51532 
   38530   0.96230671   -9427.1731    213.12688    292.40956 
   38540    0.9617051   -9430.0946   -122.60481    300.24446 
   38550   0.96120679   -9432.7668   -297.79278    302.73964 
   38560   0.96102701   -9435.6342   -180.30249    296.90171 
   38570   0.96105598    -9438.727     57.15983    289.49047 
   38580     0.961036   -9441.9149    167.47251    286.04507 
   38590   0.96084341   -9445.0143   -17.369753    288.65265 
   38600   0.96067088   -9447.7064   -276.64554    291.18016 
   38610   0.96080494   -9450.3291   -327.14037    296.12173 
   38620   0.96130105   -9453.0381   -67.870054    292.72431 
   38630   0.96192839   -9455.9232   -10.981877    290.55906 
   38640   0.96260903   -9458.7704   -135.07962    295.50386 
   38650   0.96345213    -9461.671   -50.180586    297.77448 
   38660   0.96436057    -9464.457    235.31126    296.23046 
   38670   0.96503438   -9467.5529    355.23901    295.30514 
   38680   0.96532377   -9470.9267    183.70698     301.3854 
   38690   0.96538434   -9474.2452    62.999838    304.53968 
   38700   0.96534993   -9477.6657    126.33945    298.96007 
   38710   0.96518229   -9481.1379    83.971149    294.49032 
   38720   0.96492404   -9484.7862   -96.574631    299.45514 
   38730   0.96474691   -9488.1038   -67.378997    294.23376 
   38740   0.96466821   -9491.7009   -177.16137     296.4854 
   38750   0.96479011   -9494.9107     -212.969    296.35846 
   38760   0.96514833   -9498.2337    10.004875     289.2203 
   38770   0.96551978   -9501.3586    177.32645    292.11322 
   38780   0.96568698    -9504.472    311.04444    291.10653 
   38790   0.96550165   -9507.4752    284.70981    286.08677 
   38800   0.96498998   -9510.1888    20.361658    291.22462 
   38810   0.96441525   -9512.4027   -122.83394    293.30985 
   38820   0.96394952   -9514.4362   -102.73156    291.70133 
   38830   0.96359669    -9516.127   -97.468603    289.50094 
   38840   0.96336471   -9517.7383   -190.62826    294.35817 
   38850   0.96332744   -9519.1064   -57.348958    290.33679 
   38860   0.96337542   -9520.4194   -2.1208974    291.47533 
   38870   0.96341509   -9521.3945    116.01018    288.07457 
   38880   0.96333158   -9522.4022    141.89408    285.11083 
   38890   0.96308765   -9523.0372    15.874065    291.01582 
   38900    0.9627957   -9523.1676    3.5658273    287.84602 
   38910   0.96251786   -9523.1508   -202.55235     296.2096 
   38920   0.96243924   -9522.8582    -183.6194    297.33785 
   38930   0.96256264   -9522.6059    58.714806    292.98388 
   38940    0.9626072   -9522.4854     408.6467    283.53668 
   38950   0.96220392   -9522.3397    377.57581    282.61504 
   38960   0.96135375   -9521.6017    36.618232    286.23009 
   38970   0.96041952   -9520.1639   -207.41997    287.93329 
   38980   0.95968791   -9517.8614   -250.45339    287.30388 
   38990   0.95924369   -9515.5283   -317.76104    290.71996 
   39000   0.95915018   -9512.6612   -206.51796    287.56254 
   39010   0.95930963   -9509.4911   -92.938432    286.08716 
   39020   0.95960186   -9505.9516   -137.62423    286.52218 
   39030    0.9600816   -9501.7526   -257.56216    287.00974 
   39040   0.96089031   -9497.2492   -315.85756     294.0735 
   39050     0.962078   -9492.3985   -128.25647    296.79031 
   39060   0.96345086   -9487.4606    174.48182    296.24259 
   39070   0.96466559   -9482.5172    396.85071     293.6698 
   39080   0.96545371    -9477.545    425.07435    293.40106 
   39090   0.96575174    -9472.417    412.50018    291.77397 
   39100   0.96557626   -9467.4559    246.14263    299.91859 
   39110   0.96506627   -9462.2858    274.09123    294.44839 
   39120   0.96423808   -9457.5624    134.99616     294.3757 
   39130   0.96322496   -9452.8961   -66.259927    295.04608 
   39140   0.96227779   -9447.8625   -379.24563    298.52963 
   39150   0.96175087   -9442.9134   -557.31075    306.39738 
   39160    0.9618372    -9438.529   -300.98446    301.30889 
   39170   0.96230853   -9435.2245   -115.94192    302.13838 
   39180   0.96293834   -9432.4432   -18.188121    300.89818 
   39190    0.9636244   -9430.0588   -40.777677    302.64688 
   39200    0.9643648   -9428.2317    59.376132    304.60804 
   39210   0.96503005   -9426.6292    377.82962    294.40158 
   39220   0.96531393   -9425.5945    301.90419    295.95186 
   39230    0.9652338   -9424.4799    176.91477    299.16846 
   39240   0.96493103   -9423.4572    94.552809    300.41432 
   39250   0.96450485   -9422.5661    8.1536425     300.3393 
   39260   0.96406216   -9421.8214   -91.958035    298.95231 
   39270   0.96371594   -9421.0432   -118.80836     297.6639 
   39280   0.96348475   -9420.1882    19.116934    296.31493 
   39290   0.96322906   -9419.7679     96.08247    300.48026 
   39300   0.96283401   -9419.3258    225.54535    299.61492 
   39310   0.96217213   -9419.2946    197.15512    301.37351 
   39320   0.96124257   -9419.1459    165.51524    293.17396 
   39330   0.96011412   -9418.8862   -54.433501    290.13588 
   39340   0.95903506   -9418.3108   -434.02173    298.01343 
   39350   0.95840562   -9417.1829   -492.41801    299.91242 
   39360    0.9583244   -9416.2304   -250.99316    295.02582 
   39370   0.95856895   -9415.5008   -169.71808    297.26684 
   39380   0.95902524   -9414.8226    -125.0345    299.77408 
   39390   0.95964042   -9414.2932   -22.082274    302.22635 
   39400   0.96029028   -9413.8961     171.0948     296.2905 
   39410   0.96077773    -9413.779    201.01872    298.96434 
   39420   0.96102756   -9413.3929    250.19254    297.09379 
   39430   0.96101115   -9413.1367    107.03365    298.47043 
   39440   0.96085865   -9412.7322   -15.632171    297.59607 
   39450   0.96072839   -9412.1165   -149.37175    296.05439 
   39460   0.96076619   -9411.3781   -175.08501    291.00716 
   39470   0.96103956   -9410.6846   -308.85281    295.74158 
   39480   0.96166295   -9409.6301   -195.34045    296.86141 
   39490   0.96253321   -9408.6697    89.083387    298.50176 
   39500   0.96332961   -9408.1288    310.61188    302.69246 
   39510   0.96377265   -9407.5888    530.63824    296.70501 
   39520   0.96361457   -9407.4368    529.79724    294.90114 
   39530     0.962838   -9407.1404     220.5318     297.9234 
   39540   0.96176543   -9406.4865   -120.90443    299.02538 
   39550   0.96078377   -9405.6421   -247.08786    295.73553 
   39560   0.96006553   -9404.2928   -271.60498    293.33575 
   39570   0.95965808   -9403.0718   -290.98296     296.3818 
   39580   0.95956567   -9401.7099   -127.48272    293.48852 
   39590   0.95964066   -9400.4277   -81.592758    294.54458 
   39600   0.95983337   -9398.8578   -224.50889    300.06127 
   39610   0.96028532   -9397.1675   -214.22275    302.77946 
   39620   0.96099277   -9395.8507    15.784681    304.51441 
   39630   0.96169909   -9394.6583    304.87105    302.58788 
   39640   0.96207844   -9393.9684    399.39427    304.28874 
   39650   0.96198785   -9393.1694    415.04034    299.13792 
   39660   0.96142503   -9392.6353    182.10792    300.50911 
   39670   0.96061099   -9392.0019   -16.034394     300.9308 
   39680   0.95978274   -9391.2566   -111.85448     300.9034 
   39690   0.95904044    -9390.594   -52.719985    298.05902 
   39700   0.95836306   -9389.9487   -169.95163    301.73013 
   39710   0.95785564   -9388.9005   -235.73305     301.2797 
   39720   0.95763195   -9388.1432   -337.15055    304.98658 
   39730   0.95777749   -9387.4622   -171.39946    300.44155 
   39740   0.95814767    -9387.026    5.3859271    296.36549 
   39750   0.95853139   -9386.5207    74.615789     297.5192 
   39760   0.95884236   -9386.0775    57.020348    299.93433 
   39770   0.95910796   -9385.8609   -73.707533    303.41092 
   39780   0.95946394   -9385.2384   -152.18469    302.15911 
   39790   0.96002833   -9385.0925   -271.44642    308.46711 
   39800   0.96089959   -9385.1455   -81.169212    306.47208 
   39810    0.9619059   -9385.4989    118.90918    305.81292 
   39820   0.96279835   -9386.2545    292.15117    303.81669 
   39830   0.96338149   -9387.2746    315.39509    299.73145 
   39840   0.96363205    -9388.545    60.566622    306.93727 
   39850   0.96377922   -9389.8642    87.888928    304.72772 
   39860    0.9638156   -9391.5985    253.52072    299.48433 
   39870   0.96356135   -9393.5778    304.10965    294.45373 
   39880   0.96295998   -9395.7022    102.09733    294.14871 
   39890   0.96222891   -9397.5976   -234.64329    301.64428 
   39900   0.96172843   -9399.1724   -355.17988    301.52238 
   39910   0.96163908   -9401.1604    -380.7779    302.70806 
   39920   0.96198574   -9403.5025   -196.39315     298.5906 
   39930    0.9625998   -9406.1844   -89.735379    299.15313 
   39940   0.96334554   -9409.2344   -57.378243     306.5694 
   39950   0.96414511   -9412.4215     248.7451    297.38088 
   39960   0.96470585   -9416.3675    290.06893    302.16636 
   39970   0.96491146   -9420.5045    371.05254    298.65497 
   39980   0.96470375   -9424.7275     241.4492    294.69489 
   39990   0.96421281    -9429.046   -56.846467    299.79294 
   40000   0.96375285   -9433.1973   -180.88767    299.77799 
   40010   0.96349571   -9437.3023   -233.42849    299.67752 
   40020   0.96350545    -9441.377   -171.56389    295.73988 
   40030   0.96373133   -9445.6271    -148.0359    300.15245 
   40040   0.96412298   -9450.0752    3.4822832    300.37721 
   40050   0.96452516   -9454.5983    158.89803    293.65797 
   40060    0.9647805   -9458.8326    67.993044     290.9181 
   40070   0.96497054   -9462.8244   -96.345469    291.36454 
   40080   0.96526973   -9466.3963   -153.50175     293.9935 
   40090   0.96575327   -9469.8056   -137.22679      299.916 
   40100   0.96639642   -9473.2951    29.970475    300.33474 
   40110   0.96702076   -9476.8284    253.62466    296.23394 
   40120   0.96736744     -9480.21    402.09408    290.29324 
   40130   0.96726865   -9483.2969    278.91298    290.27034 
   40140   0.96684209   -9486.1387    7.2247235     294.7327 
   40150   0.96638701   -9488.4403   -209.66909    297.43936 
   40160   0.96615464   -9490.3888   -241.68414    297.17136 
   40170   0.96618909   -9492.3524   -118.39185    298.19781 
   40180    0.9663605   -9494.3613    24.750888    301.58795 
   40190   0.96649814   -9496.5167    226.32467    296.94145 
   40200    0.9663897    -9498.637    240.88319    294.20849 
   40210    0.9659964   -9500.7882    136.63933    294.02469 
   40220    0.9654136    -9502.497    101.74807    290.25349 
   40230   0.96470365   -9504.0569   -46.188697     293.8182 
   40240   0.96400188   -9505.1357   -48.825257    292.19693 
   40250   0.96334447   -9506.0124   -105.35226    288.54916 
   40260   0.96279996   -9506.4562   -219.67006    288.40346 
   40270   0.96249177   -9506.6909   -267.17208     292.6427 
   40280    0.9624777   -9506.6426   -150.57053    291.98058 
   40290   0.96263699   -9506.4629    110.83915    285.60355 
   40300   0.96269102   -9506.2294    211.31169    283.96834 
   40310   0.96251301   -9505.6198    120.46655    282.53981 
   40320   0.96219719   -9504.7503    -112.3505    288.25656 
   40330   0.96199846   -9503.2336   -316.29175    292.69311 
   40340   0.96215724   -9501.4652   -354.17831    295.57552 
   40350   0.96272584   -9499.6579    -133.8308    293.02652 
   40360   0.96347985   -9497.7394    98.777417     287.5373 
   40370   0.96419073   -9496.0506   -62.169789    298.37856 
   40380   0.96496417   -9493.8434    25.340488    295.96083 
   40390   0.96574898   -9491.9241    110.20957    299.24831 
   40400    0.9664207   -9490.0992    227.24381    300.64414 
   40410   0.96684725   -9488.4032    304.48891    298.69683 
   40420   0.96692584   -9486.7886     296.8046     297.8782 
   40430   0.96664936    -9485.254    263.55998    295.12093 
   40440   0.96605786   -9483.7372    112.10068    296.98673 
   40450   0.96531138   -9481.9809   -80.293788    300.99093 
   40460   0.96460619   -9480.0437   -53.959201    297.62105 
   40470   0.96394735   -9478.3659   -50.526607    296.61318 
   40480   0.96332847   -9476.5054   -76.035543    293.23459 
   40490   0.96280387   -9474.6138   -250.48582    294.99968 
   40500   0.96255159   -9472.5264   -340.95186    301.03309 
   40510   0.96266052   -9470.3066   -85.806495    297.21176 
   40520   0.96289375   -9468.4445    134.17308    291.10837 
   40530    0.9629914   -9466.5521      236.379     285.1728 
   40540   0.96283707   -9464.5095    61.649824    289.77151 
   40550   0.96260201   -9462.0539   -188.79561     297.4046 
   40560   0.96256429   -9459.3735   -253.11795    298.90317 
   40570   0.96280992   -9456.8978    -63.36671    296.49851 
   40580   0.96313385   -9454.5613    200.54787      294.163 
   40590   0.96325759   -9452.1685    188.53723    294.57376 
   40600   0.96317801   -9449.7574   -24.564755    299.12658 
   40610   0.96310701   -9447.2152   -133.08884    302.73467 
   40620   0.96317832   -9445.0017   -63.888526    303.77614 
   40630   0.96331024   -9442.8861    192.76483      296.147 
   40640   0.96324124   -9441.1504    261.67778    297.07961 
   40650   0.96284109   -9439.5476    342.52156    295.52205 
   40660   0.96203045   -9438.1877    283.76351    288.12606 
   40670   0.96089756   -9436.6728   -198.50858    297.57132 
   40680     0.959914     -9434.22   -327.94476     294.3865 
   40690   0.95930653   -9431.7881    -416.7334    292.93622 
   40700      0.95919   -9429.3325    -539.3619    300.11737 
   40710   0.95969125   -9427.1749   -377.63262    299.37108 
   40720   0.96065842    -9425.385   -76.326968    298.26788 
   40730   0.96175819   -9423.9227    183.36267    296.47489 
   40740   0.96268436   -9422.4341    302.65437     294.5654 
   40750   0.96330192   -9421.3576    151.89073     301.1453 
   40760   0.96373265     -9420.26    75.995395    304.98874 
   40770   0.96406325    -9419.417    179.41569    305.08626 
   40780   0.96417737   -9418.9016    355.57682    301.73055 
   40790   0.96388397   -9418.7985    398.30906    299.63072 
   40800   0.96310876   -9418.9542    331.51583    298.73373 
   40810   0.96191333   -9418.9905    212.00352    293.26129 
   40820   0.96045402   -9418.9021   -115.62071    296.35863 
   40830   0.95909432   -9418.1871   -438.16558    301.90852 
   40840   0.95819049   -9417.3949   -423.33258    299.31739 
   40850    0.9577778   -9416.8155   -352.43162    299.40074 
   40860   0.95778074   -9416.3468   -284.49874    299.29254 
   40870   0.95813023   -9416.2208   -209.38963    303.15065 
   40880   0.95872876    -9416.242   -2.8163498    298.87712 
   40890   0.95937252   -9416.4537     52.02618    301.34484 
   40900   0.95994534   -9416.5377    230.31233    301.55341 
   40910   0.96025128   -9416.9394    415.39445    299.55559 
   40920   0.96008377   -9417.5453    359.41996     296.6022 
   40930    0.9595129    -9418.057    17.934907    298.65258 
   40940   0.95889047    -9418.259   -229.62853    302.91555 
   40950   0.95850042   -9418.1822   -201.95146     299.4918 
   40960   0.95834756     -9418.43    -143.8597    301.17065 
   40970   0.95835099   -9418.8307    6.1493248    298.15048 
   40980   0.95835998     -9419.13    71.063485    291.81891 
   40990   0.95830862   -9419.5576   -92.782897    296.34273 
   41000   0.95834845   -9419.5012    -144.2842    293.53567 
   41010   0.95858914   -9419.5748   -323.76114     300.8998 
   41020   0.95919642   -9419.5777   -235.43785    301.81094 
   41030   0.96008405   -9419.6854    170.77268    291.21557 
   41040   0.96083178   -9419.9932    339.48788    293.57653 
   41050   0.96119352   -9420.1347    373.19108     294.2704 
   41060   0.96113372   -9420.3646    204.82499    296.94329 
   41070   0.96081219   -9420.2031    92.930804    292.33732 
   41080   0.96038125   -9419.8691   -90.545506      295.162 
   41090   0.96004066   -9419.3564   -261.90769    301.78386 
   41100    0.9599744   -9418.7041   -179.01542    299.69277 
   41110   0.96013079   -9418.3502   -86.993641    301.71885 
   41120   0.96037355   -9418.0231     180.6568    295.55776 
   41130   0.96044868   -9418.0286    107.79569    298.96599 
   41140   0.96039799   -9417.7719   -35.786449    302.63393 
   41150   0.96035419    -9417.576     156.7407    294.39087 
   41160    0.9601408   -9417.6785    225.53269    294.28443 
   41170   0.95965223   -9417.6597    142.19689    296.18944 
   41180   0.95897086   -9417.4252    46.201963    292.93113 
   41190   0.95823248   -9417.0564   -195.32369    292.72695 
   41200   0.95770126   -9416.0468   -388.55466    295.30626 
   41210   0.95759357    -9414.808   -312.47627    297.15948 
   41220   0.95785107   -9413.8138   -111.25086    300.82919 
   41230    0.9582435   -9412.9123    163.65371    297.45183 
   41240   0.95847244   -9412.2195    261.49182    295.31245 
   41250   0.95841949     -9411.46    104.05571    292.88454 
   41260   0.95826014   -9410.4273   -238.11068    299.65314 
   41270   0.95835518   -9409.0591   -373.54327     306.7243 
   41280   0.95886454   -9407.8803   -126.52318    299.56604 
   41290   0.95957288   -9406.9965    28.201234    295.36233 
   41300   0.96028208   -9405.9821    117.44554    293.14126 
   41310   0.96089748   -9404.8674    34.684514    296.92835 
   41320   0.96148366   -9403.5238   -34.244754     299.9185 
   41330   0.96211874   -9402.2983    38.074588    299.93459 
   41340   0.96271922   -9400.9501    237.87377    295.79921 
   41350    0.9630738   -9399.6823    311.55528    293.46976 
   41360   0.96307895   -9398.2973    219.92496    296.34919 
   41370   0.96280871   -9396.5709    163.78852    293.88804 
   41380   0.96234526   -9394.7396  -0.84112212    296.80473 
   41390   0.96184288   -9392.3692   -28.810541    296.61724 
   41400   0.96136665   -9389.8508   -81.083426     298.7989 
   41410   0.96095265     -9387.14   -10.537901    298.10359 
   41420   0.96053632   -9384.4541    102.06668    298.17385 
   41430   0.95999093   -9381.5484    121.50909    294.91566 
   41440   0.95930753   -9378.4396   -40.143755    295.78196 
   41450   0.95865145   -9375.0137   -256.33189    305.94708 
   41460   0.95824948     -9371.11   -185.64092    301.26527 
   41470   0.95806621   -9367.3214   -81.183218    296.38632 
   41480   0.95798414   -9363.5835     -61.2604    300.17986 
   41490   0.95796652   -9359.4912   -17.616624    298.54167 
   41500   0.95799089   -9355.2431   -121.99912    300.47504 
   41510   0.95815195   -9350.9996   -148.64118    308.11881 
   41520   0.95846865   -9346.8123    63.360482    303.05462 
   41530   0.95874973   -9343.0305    92.203741    302.71004 
   41540    0.9589126   -9339.1043    222.70596    294.41889 
   41550   0.95885162   -9335.3245    99.723541    300.14061 
   41560   0.95865544    -9331.273   -50.757415    309.96457 
   41570   0.95849491   -9327.2712   -44.039559    307.83751 
   41580   0.95838451   -9323.7915    -30.88686    311.02647 
   41590   0.95828586   -9320.7535    124.60015    306.77936 
   41600   0.95805665   -9318.1776    94.909652    307.34717 
   41610   0.95770622   -9315.6676     17.83369    305.74955 
   41620   0.95731907   -9313.4778    21.671755    298.17591 
   41630   0.95691109   -9311.3919   -73.523024    298.89076 
   41640   0.95657498   -9308.9926   -152.41422    299.40881 
   41650    0.9564211   -9306.8428   -268.30386    308.79506 
   41660   0.95654402   -9304.7594   -69.732545    307.10202 
   41670   0.95676317    -9303.409    136.53898    301.93448 
   41680   0.95683855   -9302.1742    192.37959    298.94469 
   41690    0.9567051     -9300.96    48.169264     302.1597 
   41700   0.95650518    -9299.792   -92.254153    309.41236 
   41710   0.95637074   -9298.7938    87.112417    302.57062 
   41720   0.95616266   -9298.1706    58.483608    300.83765 
   41730   0.95588252   -9297.4224   -64.792553    302.69273 
   41740   0.95566238   -9296.9903   -137.81512    305.40844 
   41750   0.95559487   -9296.6517   -170.48062    309.13383 
   41760   0.95571344   -9296.6048   -29.982361    304.78804 
   41770   0.95587972   -9296.9644    118.09054    303.12054 
   41780   0.95589514   -9297.5081    318.39324    301.05209 
   41790   0.95554381   -9298.5338    323.78929    299.41175 
   41800   0.95479623   -9299.5409    225.40367    297.43262 
   41810   0.95376998   -9300.3881   -19.393926    298.63899 
   41820   0.95274642   -9301.0529   -380.16941    305.71005 
   41830   0.95210365   -9301.5103   -352.29751    302.29813 
   41840   0.95185869   -9302.2747   -161.38827    298.67641 
   41850   0.95182181   -9303.4692   -176.78252    305.60426 
   41860   0.95199375    -9304.717   -205.27283    304.81925 
   41870    0.9524276   -9306.3472   -236.83304    305.59551 
   41880   0.95315113   -9308.5842   -160.18773    309.25087 
   41890   0.95408566   -9311.3218    5.2460938    307.59475 
   41900   0.95505265   -9314.7401    148.11253    303.92859 
   41910   0.95588892   -9318.7624    188.32997    301.76695 
   41920   0.95652726   -9323.1275    202.28681    301.28864 
   41930   0.95694132   -9328.2026    175.33066     304.8278 
   41940    0.9571537   -9333.6607     154.1911    300.94882 
   41950   0.95721497   -9339.6213   -57.870103    300.28531 
   41960   0.95733213   -9345.9694   -171.52655    301.41443 
   41970   0.95763897   -9352.4662    -73.42981     298.8445 
   41980     0.958053   -9359.3064  -0.49963633    296.71343 
   41990   0.95850136   -9366.3949   -57.522716    299.29253 
   42000   0.95901324   -9373.2952     57.81304    295.28054 
   42010   0.95948374   -9379.7966    137.89942       292.74 
   42020   0.95981348   -9386.1604    98.500163    294.63664 
   42030   0.96002334   -9391.5773     139.9117    290.50901 
   42040   0.96008929      -9396.7    62.951926    296.83556 
   42050   0.96005638   -9401.1712     76.43345    294.91631 
   42060   0.95997037   -9405.3617    -220.0038    302.23845 
   42070   0.96010192   -9408.6706   -231.17271    299.11212 
   42080   0.96052926   -9411.9026   -178.32082    301.69367 
   42090   0.96116709   -9414.9963    25.282472    300.91456 
   42100   0.96182439   -9417.9432    99.584328    300.18237 
   42110    0.9623812   -9420.6193     189.3645    296.16623 
   42120   0.96274111   -9422.9861    223.60282     292.3108 
   42130   0.96285292   -9424.8936    152.74106    292.06234 
   42140   0.96280223   -9426.4987   -63.926408    296.95545 
   42150   0.96279564   -9427.6326   -46.701392    290.63072 
   42160   0.96285884   -9428.3748   -8.4693766    287.12924 
   42170   0.96293771   -9429.4076   -29.367477    296.15188 
   42180   0.96302559   -9429.9475    161.40155    291.35257 
   42190     0.962943   -9430.5226    205.16391    289.80006 
   42200   0.96260673   -9430.7735    207.46579    288.33756 
   42210   0.96201648   -9430.8775    108.06388    288.60285 
   42220   0.96127748   -9430.5607   -61.187721    287.44293 
   42230   0.96059374   -9429.7082   -293.94824     293.0683 
   42240   0.96019978   -9428.5657   -228.74165    292.18391 
   42250   0.96006592   -9427.2951    -50.84113    285.80237 
   42260   0.96000661   -9425.9146    5.4892327       283.17 
   42270    0.9599557   -9424.3139   -125.43774    291.15259 
   42280   0.96002793   -9422.2549   -93.388118    293.72166 
   42290   0.96021338   -9420.1055    14.291874    289.34393 
   42300     0.960421   -9417.8063   -97.152896    293.92417 
   42310   0.96073409    -9415.422   -91.278547     295.7062 
   42320   0.96116414   -9412.9666    12.577848    293.06937 
   42330   0.96160988   -9410.5821    -1.360304    300.92404 
   42340   0.96204346   -9408.1888    152.32138     300.4027 
   42350   0.96231847    -9406.013    263.31378    297.47835 
   42360   0.96230338   -9403.8907    199.82894    295.98064 
   42370   0.96205119    -9401.762    84.109308    295.38178 
   42380    0.9616784   -9399.3922    57.310856    294.49951 
   42390   0.96122125   -9397.0404    12.248474    297.73923 
   42400    0.9607316   -9394.6627    -91.52614    302.47613 
   42410    0.9603239   -9392.2458   -94.578153    304.43838 
   42420   0.95999101   -9390.0239    142.90726    293.87457 
   42430   0.95951051   -9388.0138    135.96661    291.76057 
   42440   0.95886044   -9385.6843   -2.6078645    290.48595 
   42450   0.95821039   -9383.0127   -282.65287    295.37617 
   42460   0.95786435   -9380.2452   -419.20265    301.37211 
   42470   0.95797842   -9377.3007   -224.36742    297.04592 
   42480   0.95839235    -9374.817   -129.84419    296.72697 
   42490   0.95898333   -9372.2561   -119.48402     299.9364 
   42500   0.95973179   -9369.7717   -45.334715    299.81924 
   42510   0.96055719   -9367.4583    61.625065    301.21642 
   42520   0.96133786   -9365.1947     130.0984    304.39002 
   42530   0.96198161   -9363.2767    216.87865    306.34239 
   42540   0.96236299   -9361.5695    430.72203    300.16364 
   42550   0.96227334   -9360.2468    358.25332    299.05457 
   42560   0.96176434   -9358.9119    74.556118    306.39055 
   42570   0.96110633   -9357.6359    96.316828    301.39324 
   42580   0.96032296   -9356.5876    134.16569    295.77719 
   42590   0.95937915   -9355.4667   -55.680832     302.2473 
   42600   0.95844724   -9354.2641   -64.520427    298.01317 
   42610   0.95759037   -9353.1903   -178.46561    297.89202 
   42620   0.95692304   -9351.8278   -297.31661    299.03564 
   42630    0.9565951   -9350.2103   -369.69254    297.98417 
   42640   0.95670817   -9348.6279   -460.64472    304.81564 
   42650   0.95735091   -9347.3486   -307.36583    308.61492 
   42660   0.95837289   -9346.6121   -7.0880425     303.5081 
   42670   0.95944982   -9346.2068    222.96835    301.17214 
   42680   0.96029501   -9346.0345    359.56217    303.38793 
   42690   0.96073787    -9345.922    386.58573    301.56603 
   42700   0.96074356   -9345.9108    276.32921    296.33939 
   42710    0.9604367   -9345.8389    0.8595828    300.10778 
   42720   0.96011574   -9345.5821   -248.03297    306.39158 
   42730   0.96006405    -9345.447   -336.19743    311.79146 
   42740   0.96038587   -9345.7324   -130.75542    304.78963 
   42750   0.96088998   -9346.3078    55.177512      300.893 
   42760   0.96135443   -9347.2117    127.77797    303.58229 
   42770   0.96167086   -9348.3457    224.47002    298.30431 
   42780   0.96174903   -9349.7367    138.70546    301.36427 
   42790   0.96163978   -9351.1209    165.91715    301.39564 
   42800   0.96133484   -9352.6803    128.69532    300.04383 
   42810   0.96087129   -9354.4842    19.379605     304.6214 
   42820   0.96034069   -9356.2411    87.874376    297.02332 
   42830   0.95972726   -9358.4881   -141.31339    302.96918 
   42840   0.95922554   -9360.4835   -126.51502     301.1573 
   42850    0.9588656   -9362.9641    -55.19991    298.11077 
   42860   0.95856431   -9365.6726   -15.800761    294.39428 
   42870   0.95828432   -9368.3915   -78.813959    294.49328 
   42880   0.95809988   -9371.3355   -245.45628    299.64635 
   42890   0.95818251   -9374.4932   -213.84899    299.09839 
   42900   0.95851126   -9377.7699   -7.2213676    295.23982 
   42910   0.95888024   -9381.5142     63.00757    294.50968 
   42920   0.95920337   -9385.4113   -4.1876084    294.82811 
   42930   0.95954055   -9389.4339   -52.250219    295.78729 
   42940   0.95994993   -9393.5294   -72.445656    296.65529 
   42950   0.96047357    -9398.035   -151.62897    300.41005 
   42960   0.96117823    -9402.806   -19.574242    299.99733 
   42970   0.96191086   -9407.6994    338.34327    293.71337 
   42980   0.96227854   -9412.8175    588.53824    290.27685 
   42990   0.96198225   -9418.2857    463.77254    293.95374 
   43000   0.96112217   -9423.5104    126.49768    296.51588 
   43010   0.96006861   -9428.3398   -160.52231    294.08187 
   43020   0.95916424    -9432.575   -337.60248    292.21695 
   43030   0.95863712   -9436.5276   -464.41772    293.86865 
   43040   0.95863369   -9440.1302   -416.04051      292.558 
   43050   0.95913609   -9443.7646   -355.68262    299.87627 
   43060   0.96006634   -9447.5642   -110.13332    296.39539 
   43070   0.96118518   -9451.3876    46.311948    295.26147 
   43080   0.96228546   -9454.9324    213.51575     292.4112 
   43090   0.96319217   -9458.2453      200.575    295.16472 
   43100   0.96387734   -9461.2261    229.00444    291.93924 
   43110   0.96432467   -9463.9829    168.16924    294.26976 
   43120   0.96457548   -9466.3887    106.17726      296.343 
   43130   0.96470012    -9468.679    96.221668     297.0452 
   43140   0.96469742   -9470.8144    188.82148    294.65089 
   43150   0.96446733    -9472.855    283.38952    290.30201 
   43160    0.9639026   -9474.6497    194.52105    290.12234 
   43170   0.96310231   -9476.0731   -117.61538    297.31883 
   43180   0.96239546   -9476.9735    -309.8738     300.0656 
   43190   0.96201818   -9477.6819   -270.42862    294.72181 
   43200    0.9619691    -9478.502    -263.7961    294.90443 
   43210   0.96223373   -9479.1218   -220.45667    297.13123 
   43220   0.96276491   -9480.0306   -85.776491    300.35934 
   43230   0.96339686   -9480.8093    193.51462     295.8685 
   43240   0.96384271   -9481.6904    269.83295    292.21253 
   43250   0.96400403   -9482.4999    88.699691    295.99517 
   43260   0.96405937   -9482.8858   -80.131683    295.17303 
   43270   0.96420777    -9483.141   -125.65939    294.31857 
   43280   0.96449643   -9483.1222    10.586198    289.68432 
   43290   0.96480473   -9483.2362    -15.79146     299.8555 
   43300   0.96509795   -9483.1017    239.41781    294.75007 
   43310   0.96515123   -9483.1125    235.59156    291.70715 
   43320   0.96493281   -9482.9933    26.767539    294.66868 
   43330   0.96467081   -9482.6127   -155.03989    296.13291 
   43340   0.96457401   -9482.0061   -184.57722    295.31251 
   43350   0.96468274   -9481.3889   -46.367896    295.84925 
   43360   0.96485294   -9480.9681    77.080363    295.77562 
   43370   0.96494518    -9480.371    95.791395    293.12044 
   43380   0.96493902    -9479.692    -8.285325    292.48445 
   43390   0.96494731    -9479.017   -148.92255    297.65521 
   43400   0.96510988   -9478.0248   -85.526026    298.39368 
   43410   0.96537559   -9477.2584    33.347848    300.82424 
   43420   0.96559784   -9476.6145    199.34189    297.77074 
   43430   0.96560889   -9476.1286    202.36247    295.46476 
   43440   0.96537965   -9475.7674    119.68944     297.7631 
   43450   0.96500745   -9475.0645   -13.295498      299.461 
   43460   0.96463213   -9474.2645   -60.394031     295.9494 
   43470   0.96432564   -9473.4029   -124.70571    296.47987 
   43480   0.96414742   -9472.4647   -89.111738    295.98412 
   43490   0.96406193   -9471.6476    48.174954    292.49016 
   43500   0.96391795   -9470.8695    147.57594    292.85158 
   43510    0.9636013   -9469.8797    118.91615    290.44935 
   43520   0.96316057   -9468.5705    -166.8146    295.38095 
   43530   0.96288891   -9466.9953   -333.76076    301.58786 
   43540   0.96297993   -9465.4212   -206.86798     301.4207 
   43550   0.96331669   -9464.2001    41.477043    298.61318 
   43560   0.96361037   -9463.2938    360.67677    293.88596 
   43570   0.96348992   -9462.3881    549.18052    286.88184 
   43580   0.96274965   -9461.5854    267.96638    291.50781 
   43590   0.96164832   -9460.2439    12.259783    288.48858 
   43600   0.96052425   -9458.2358   -352.51565     288.2953 
   43610   0.95979082   -9455.5024   -683.05132    297.46758 
   43620   0.95980866   -9452.5925    -552.7412    297.85969 
   43630   0.96047704   -9450.0197   -210.91281    293.22562 
   43640   0.96145026   -9447.6215   -38.374553    292.82591 
   43650   0.96250045   -9445.2167    90.303877    297.02323 
   43660   0.96346113   -9442.6809    267.31889    296.63647 
   43670   0.96414843   -9440.5101    230.82276    302.09494 
   43680   0.96457327   -9438.1527    195.22675    299.65821 
   43690   0.96479102   -9435.8664    99.671225    297.77025 
   43700   0.96489062   -9433.3856    44.009556    299.07227 
   43710   0.96492576   -9430.9947    111.74112    299.76147 
   43720   0.96482367    -9428.805    205.17897     297.8805 
   43730   0.96447914   -9426.6873    239.01512    291.26934 
   43740    0.9638683   -9424.5648   -1.0972939    294.41493 
   43750   0.96323307   -9422.1932   -263.45044    300.92867 
   43760   0.96286421   -9419.5515    -257.3921     300.2517 
   43770   0.96277564   -9417.0657   -40.706914    295.30547 
   43780    0.9627621   -9414.9752   -16.090441    295.80645 
   43790    0.9627704   -9412.5875   -37.451345     294.8866 
   43800   0.96282171   -9410.3611   -16.254824    299.58168 
   43810   0.96287675    -9408.122    87.629686    299.07762 
   43820   0.96285486   -9406.2989   -11.171922    303.67148 
   43830   0.96282611   -9404.3371    22.015114     301.0986 
   43840   0.96277611   -9402.8488    57.592626    303.33033 
   43850     0.962642   -9401.6106    128.12583    305.12693 
   43860    0.9623503   -9400.5139    171.05409     299.9899 
   43870   0.96185111   -9399.7488    121.80765    301.42073 
   43880   0.96116322   -9399.2507    218.62918    300.08584 
   43890   0.96019448   -9398.9667    231.05613    294.71614 
   43900   0.95894748   -9398.6542    -76.65083    297.59446 
   43910   0.95774044   -9397.8626   -358.81483    300.78884 
   43920   0.95689763   -9397.1034   -389.18125    298.92249 
   43930   0.95648749   -9396.4186   -296.57659    293.53443 
   43940    0.9564352    -9395.702   -259.75692    291.07677 
   43950   0.95670327   -9394.8328   -241.92553    292.45175 
   43960   0.95726118   -9394.2232   -122.97162     298.5603 
   43970   0.95797264   -9393.6223    146.50466    294.73269 
   43980    0.9585574   -9393.2336    232.02724    295.37492 
   43990   0.95889002   -9392.9667    213.16906    297.65463 
   44000   0.95897543   -9392.5767    195.10317    295.97562 
   44010   0.95883091   -9392.1916    180.05661    293.31651 
   44020   0.95845735   -9391.7826     223.1921    287.15843 
   44030   0.95782828   -9391.3577    -2.394155    294.75794 
   44040   0.95716063   -9390.4124   -176.04266    295.93292 
   44050    0.9566847   -9389.2633   -339.97849    300.42313 
   44060   0.95657394   -9388.3127   -276.70574    300.82903 
   44070    0.9567954   -9387.5522   -140.85536    298.61297 
   44080   0.95718658   -9387.0032    45.243494    295.75412 
   44090   0.95756484   -9386.5409   -1.7330913    302.47648 
   44100   0.95795409    -9386.121   -88.603877    306.22111 
   44110   0.95845225   -9385.7872    19.044341    298.38418 
   44120   0.95896648   -9385.7375    28.644237    301.97166 
   44130    0.9594566   -9385.7444    95.442426    299.51118 
   44140   0.95985288   -9385.8424    169.42458    295.36716 
   44150   0.96006223   -9386.0715    212.56129    292.96782 
   44160   0.96004468    -9385.984    49.025664    292.93544 
   44170   0.95997407   -9385.8055   -178.51904    300.60416 
   44180   0.96006486   -9385.3008    23.189697    293.13422 
   44190   0.96016465   -9385.0929    36.774363    295.17877 
   44200   0.96021826   -9384.5719    9.0948702    293.19166 
   44210   0.96028602   -9384.1573   -207.99133    303.64066 
   44220   0.96056554   -9383.4649   -161.76295    305.71825 
   44230   0.96104834   -9383.0175    14.952062    302.19082 
   44240   0.96153544   -9383.0205    182.57159    300.39399 
   44250   0.96183741   -9383.0684    192.94965    299.63297 
   44260   0.96192953   -9383.3321    39.580625    304.71186 
   44270   0.96195737   -9383.5393   -6.1725833    303.25297 
   44280   0.96199641   -9383.9138   -36.815293    304.59963 
   44290   0.96206767    -9384.571     60.61001    303.35494 
   44300   0.96208482   -9385.3972    39.580554    303.51191 
   44310   0.96205999    -9386.436    -48.92005    304.68437 
   44320   0.96207804   -9387.6578     12.91962    302.71192 
   44330   0.96207892   -9388.9927    112.22669    298.20178 
   44340   0.96197137   -9390.4118    14.836533    299.18167 
   44350   0.96185048   -9391.7433   -161.85027    299.22283 
   44360   0.96191505   -9393.0236   -273.58665    301.33859 
   44370   0.96228743   -9394.6183   -173.72159    302.72742 
   44380   0.96287904   -9396.3095    -16.70637    302.48446 
   44390   0.96351531   -9398.4685    93.313852    308.48561 
   44400   0.96403585   -9400.8493    380.20891    298.49198 
   44410   0.96416115    -9403.589    318.91901    299.21302 
   44420   0.96389391   -9406.4796    221.46108    303.18026 
   44430   0.96333662   -9409.6049    212.39581    302.96502 
   44440   0.96250856   -9412.9184    162.90774    299.24824 
   44450    0.9614728   -9416.2052    25.003077    296.75054 
   44460   0.96038214   -9419.4725   -184.15413    302.59515 
   44470   0.95944864   -9422.6313   -140.46488    297.46518 
   44480   0.95867518   -9425.6669   -191.59813    293.20923 
   44490   0.95814323   -9428.6366   -494.84746    301.98909 
   44500   0.95814802   -9431.2452   -425.98021     296.7076 
   44510   0.95867729   -9434.2683   -295.67326    298.63992 
   44520   0.95955368   -9437.4524    4.9000659    298.14776 
   44530   0.96045801   -9440.8431    277.97186    293.31788 
   44540   0.96108055   -9444.0447     325.5121     288.0172 
   44550   0.96134866    -9447.056    200.76989    289.09931 
   44560   0.96137707   -9449.7052    65.549596    296.27003 
   44570   0.96129403   -9452.0377    174.60373    289.70632 
   44580   0.96102429   -9454.4552    126.07038    289.85013 
   44590   0.96058409   -9456.3731    86.414017    290.61449 
   44600   0.96003131   -9458.0817   0.89843578    290.87053 
   44610   0.95947462   -9459.5045   -225.96587     291.4412 
   44620   0.95916869   -9460.3528   -407.30016    291.66758 
   44630   0.95932799   -9461.1542   -409.66243    292.31555 
   44640     0.959978   -9461.8187    -288.9787    289.15951 
   44650   0.96101391   -9462.4781   -215.13563    293.27936 
   44660   0.96233095   -9463.1349     -42.9944    299.74035 
   44670   0.96373916   -9463.9372     179.0362    302.75424 
   44680   0.96497377   -9464.9334    423.65713    299.81586 
   44690   0.96573469   -9465.8747    624.15153    293.23338 
   44700   0.96579927   -9467.1632    519.27423    291.84585 
   44710   0.96523643   -9468.1866    328.26975    291.68905 
   44720   0.96426668   -9468.9004    43.294282    295.33054 
   44730   0.96320678   -9469.1229   -161.15233    297.70267 
   44740   0.96228905   -9469.2029   -152.26149    295.86393 
   44750   0.96153044   -9469.1481   -136.24717    294.72591 
   44760   0.96092042   -9469.1016   -180.46488    293.87026 
   44770   0.96050191   -9468.8124   -155.22401    290.90841 
   44780   0.96025763   -9468.3367   -63.796445    289.22386 
   44790   0.96008955   -9467.7829   -14.902085    290.10542 
   44800   0.95994049   -9466.9834   -18.082461    291.64951 
   44810    0.9598031   -9466.0423   -2.9970401    293.34116 
   44820   0.95965864   -9464.5973    38.952455     288.9312 
   44830   0.95947452   -9462.9862   -2.0832883    286.52276 
   44840   0.95929035   -9460.8326   -56.961046    284.86558 
   44850   0.95917719   -9458.1831   -173.38722    289.34983 
   44860   0.95924858   -9454.8003   -167.15087    292.07946 
   44870   0.95953226   -9450.8479   -167.31079    290.73835 
   44880   0.96004444   -9446.5497   -256.11595    299.83821 
   44890   0.96084572   -9441.8914    9.1460889    299.75519 
   44900   0.96167141   -9437.1011    321.63903    297.83724 
   44910   0.96215494    -9432.047    459.36875    294.05839 
   44920   0.96212827   -9426.7917     324.5335     296.5255 
   44930   0.96170513   -9421.0042    155.97614    298.39521 
   44940   0.96107802   -9414.9322   -44.318991    301.50177 
   44950   0.96045789   -9408.6462   -107.62313    305.83085 
   44960   0.95992334   -9402.6241      21.4187     299.2152 
   44970   0.95937078   -9396.9151   -36.641683    299.48823 
   44980   0.95883733   -9391.2706   -114.48487    303.35039 
   44990   0.95840456   -9385.8904   -45.113044    302.02825 
   45000   0.95800559   -9380.8572    93.697989     294.5876 
   45010   0.95751004   -9376.5974   -27.275869    301.91114 
   45020   0.95700229   -9372.2898   -55.852515    305.19654 
   45030   0.95654578   -9368.6405   -49.222189     302.8652 
   45040   0.95612508   -9365.3676   -2.6800077    300.32149 
   45050   0.95569499   -9362.5751    3.2451049    302.52452 
   45060   0.95524504   -9360.1703    -43.74867    305.96279 
   45070   0.95482848   -9357.9805    -49.73013    299.90975 
   45080   0.95448199   -9356.2309   -209.15056    305.10708 
   45090   0.95435485   -9354.4438   -248.81244     306.4235 
   45100    0.9545167    -9353.066   -176.55806    304.83182 
   45110   0.95489307   -9352.1788   -20.403054    301.12269 
   45120   0.95531705    -9351.635    98.757799    299.71906 
   45130   0.95563418   -9351.1607    222.91566    299.93092 
   45140   0.95569587   -9350.9148    284.08287    301.78213 
   45150   0.95542215   -9350.9374     240.7192    300.65689 
   45160   0.95486499   -9351.0841     26.00945    301.04608 
   45170   0.95424933   -9351.0435   -150.11541    300.39536 
   45180   0.95377302   -9350.8272   -101.07143     293.9232 
   45190   0.95341748   -9350.7176   -135.33006    297.74457 
   45200   0.95320887   -9350.3181   -150.48636    298.61566 
   45210   0.95318187   -9350.0531   -190.81122    296.10728 
   45220    0.9533929   -9349.6724   -267.00689    297.77433 
   45230   0.95393186   -9349.4622   -276.03766    301.26136 
   45240   0.95480206   -9349.2962   -83.913663    301.13735 
   45250   0.95578975   -9349.4333    225.93635    299.39807 
   45260   0.95655206   -9349.7284    359.81453    299.05027 
   45270   0.95692209   -9350.1178    263.48775    299.93642 
   45280   0.95697811    -9350.384    188.51445    295.94093 
   45290   0.95683241   -9350.7471   -38.439368    301.42368 
   45300   0.95670258   -9350.7708   -93.545068    298.54607 
   45310   0.95669237    -9350.916   -151.61485    298.28981 
   45320    0.9568556   -9351.0094    -146.9169    299.51476 
   45330   0.95719914   -9350.9714   -107.65535    298.88333 
   45340   0.95768919   -9351.4888    -125.1483    307.84534 
   45350   0.95829727   -9351.8836    227.48052    297.11456 
   45360    0.9586986   -9352.5293    264.68416    290.93085 
   45370   0.95884513   -9353.2051   -174.51644    305.31776 
   45380   0.95914602   -9353.6932   -206.11613    308.54825 
   45390   0.95967887    -9354.616    27.638632     306.5737 
   45400   0.96019047   -9355.8708    265.29334    303.09366 
   45410    0.9604064   -9357.3314    408.57518    296.93082 
   45420   0.96017046   -9359.1467    213.16997    301.76849 
   45430   0.95966928   -9360.6236   -27.955645     302.7527 
   45440   0.95918201   -9362.1825   -157.20079    300.44048 
   45450   0.95886633   -9363.7242   -175.21166    302.05971 
   45460   0.95873561   -9365.5018   -75.320848     300.9173 
   45470   0.95869337   -9367.5127   -5.1352198    301.71438 
   45480   0.95865277   -9369.8308     55.92428    302.61033 
   45490   0.95854095   -9372.2665    121.55251    301.69596 
   45500   0.95828641   -9374.9907    135.88127    300.06439 
   45510   0.95786739   -9377.9084    70.565731    299.91223 
   45520   0.95734632    -9380.971    8.0881528    299.09942 
   45530   0.95679671   -9384.1338   -49.887372    297.55585 
   45540   0.95628564   -9386.9757   -106.85598    295.67428 
   45550   0.95590063   -9389.8269   -266.67689    300.03331 
   45560    0.9558104   -9392.6957   -292.24638    302.37565 
   45570   0.95605974   -9395.7749   -145.13671    296.45974 
   45580   0.95652228   -9399.3076   -203.96944    304.09049 
   45590   0.95720851   -9402.7614    4.7086104    294.95656 
   45600   0.95793424   -9406.2856    153.55914    293.34579 
   45610   0.95851057   -9410.0748    182.37974    300.02996 
   45620   0.95886799   -9413.7244    330.50923    295.23672 
   45630   0.95886043   -9417.4384    321.27311    290.63748 
   45640   0.95847909   -9420.8664    169.91318     286.5224 
   45650   0.95788291   -9423.8994   -33.641481    288.38386 
   45660   0.95729022   -9426.4651   -171.91213    292.47707 
   45670   0.95688637   -9428.8406   -340.01114    298.20674 
   45680   0.95685549   -9430.8828    -313.5112    295.26341 
   45690   0.95720275   -9433.2081   -201.39627    296.32799 
   45700   0.95780498   -9435.4886   -87.153553    296.20199 
   45710   0.95854508   -9437.7253   -22.059819    297.58565 
   45720   0.95932878   -9440.0744    167.34036    297.69156 
   45730    0.9599413   -9442.5394    369.41137    296.41692 
   45740   0.96015006   -9445.0026    341.50846    298.95914 
   45750   0.95997179   -9447.4632    113.35706     300.6432 
   45760   0.95964307   -9449.7908   -59.162103    297.96561 
   45770   0.95936139   -9451.9954   -77.049409    294.20287 
   45780    0.9591574    -9454.211   -23.194673    293.77303 
   45790    0.9589694   -9455.9761    25.353296     288.5389 
   45800   0.95877739   -9457.6349   -189.95137    290.02907 
   45810   0.95878918   -9458.7439   -279.81373    290.59148 
   45820   0.95913103   -9459.6878   -216.25053    291.29538 
   45830   0.95975506   -9460.5389   -163.23385    293.94008 
   45840   0.96059745    -9461.243   -24.561575    291.01782 
   45850   0.96152046   -9461.9817    51.677937    295.51191 
   45860   0.96240325    -9462.674    218.62383    297.15859 
   45870   0.96306352   -9463.2918     368.4198     293.1105 
   45880   0.96333309   -9464.0582    258.45052    295.59013 
   45890   0.96328839   -9464.4724    164.42284    294.77786 
   45900   0.96304779   -9464.7538    38.702134     293.2963 
   45910   0.96275421    -9464.815   -98.450402    293.85444 
   45920   0.96256388   -9464.6505   -172.15816    297.71815 
   45930   0.96256783   -9464.5721   -169.87294    302.41241 
   45940   0.96275341   -9464.5457    32.499365    297.66429 
   45950   0.96290986   -9464.7843    239.06988    295.39571 
   45960   0.96278884   -9465.0858     341.6819     291.3942 
   45970    0.9622742   -9465.3393    177.47897    296.81038 
   45980    0.9615054   -9465.3723    49.064697    297.76618 
   45990   0.96065458    -9465.133   -89.961291    292.71136 
   46000   0.95989792   -9464.5077   -313.11971    291.54281 
   46010   0.95948609   -9463.4173   -480.76747    294.96921 
   46020   0.95961629   -9461.9937   -428.56578    294.28789 
   46030   0.96027781   -9460.6413   -345.30497    295.69596 
   46040   0.96135551   -9459.1093   -5.0563746    291.99127 
   46050   0.96249584   -9457.6419    232.33596    297.51183 
   46060   0.96338802    -9455.619    427.40308    294.34772 
   46070    0.9638231   -9453.2643    392.09128    292.37729 
   46080   0.96381289   -9450.3038    224.46544    295.71261 
   46090   0.96352279   -9446.4753    118.53278     296.0748 
   46100   0.96307694   -9441.8357    51.153797    295.90105 
   46110   0.96255856   -9436.5997    -28.43388    296.56603 
   46120   0.96205408    -9430.624   -88.803835    297.29319 
   46130   0.96164161   -9423.9519   -129.80076    300.77918 
   46140   0.96134613   -9416.8483     12.31408    297.16084 
   46150   0.96105228   -9409.8407    -51.50406    301.92742 
   46160   0.96080623   -9402.4767   -166.70351    308.33108 
   46170   0.96073248   -9395.1559   -80.247892    303.74831 
   46180   0.96076463   -9388.8688    -12.00867    304.38556 
   46190    0.9607959   -9382.8455    156.33933    303.01642 
   46200   0.96064107   -9377.5454    312.61441    300.93165 
   46210     0.960133   -9372.9147    216.55945     301.0034 
   46220   0.95936138   -9368.3151   -21.962002     297.1092 
   46230   0.95860985   -9363.8281   -379.12813    302.54904 
   46240   0.95825546   -9359.4266   -388.79382    303.70792 
   46250   0.95834002   -9355.6614   -130.13379    301.91968 
   46260   0.95858185    -9352.271    165.11452    296.57277 
   46270   0.95866588   -9349.3587    179.23837    297.70151 
   46280   0.95854757   -9346.6251    23.385791    301.82079 
   46290   0.95838643   -9343.9255   -60.983639    306.15419 
   46300   0.95826822   -9341.4925    42.304975    305.90757 
   46310   0.95810391   -9339.6026     108.4284    306.68429 
   46320   0.95779286   -9338.0321    251.91816    303.56389 
   46330   0.95718548   -9337.0282      234.255    305.11444 
   46340   0.95628101   -9336.1667    82.694472    308.21214 
   46350   0.95523122    -9335.453    69.543749    303.04201 
   46360   0.95408469   -9334.9957   -25.074484    302.14592 
   46370   0.95293918    -9334.424   -177.59837    303.86521 
   46380    0.9519834   -9333.8447    -385.7315    310.14578 
   46390   0.95143255   -9333.4142   -326.39181    305.59078 
   46400   0.95125959   -9333.4437    -172.0118      301.682 
   46410    0.9512891   -9333.5548    4.9892458    294.53125 
   46420   0.95135473   -9334.0065   -118.60663    298.12544 
   46430   0.95154803    -9333.997    -195.7368    299.08061 
   46440   0.95197792   -9334.0603   -175.42795    298.00349 
   46450   0.95263442   -9334.1285   -132.49991    298.20036 
   46460   0.95348358   -9334.5838   -161.10293     303.2736 
   46470    0.9545472   -9335.0118   -150.39412    306.10416 
   46480   0.95582431   -9335.8098   -71.371049    306.65688 
   46490    0.9572126    -9337.022    109.37967    306.01369 
   46500   0.95851813   -9338.3482    242.94319    303.28859 
   46510    0.9595935   -9339.8813    162.78775    305.26197 
   46520   0.96049499   -9341.7714    132.35858     305.7179 
   46530   0.96125034   -9343.8468    222.96019    301.48302 
   46540   0.96177239   -9345.9999    249.39363    300.04461 
   46550    0.9620101   -9348.4371    206.07821    304.19986 
   46560   0.96199327   -9350.8146    234.15594    300.90388 
   46570   0.96172319   -9353.5492    27.848119    304.03316 
   46580   0.96141027   -9356.2873   -187.83689    307.96121 
   46590   0.96129087   -9359.0642   -184.75756    305.29382 
   46600   0.96139544    -9362.254   -186.64319    304.44675 
   46610   0.96172556   -9365.7458   -171.78996    304.72122 
   46620   0.96225964   -9369.4888   -3.0220892    300.89083 
   46630   0.96282466   -9373.3112    133.14701    296.93857 
   46640   0.96326764   -9377.2533    77.465484    301.42041 
   46650   0.96362331   -9381.0135    44.780578    301.36881 
   46660    0.9639333   -9385.0534     57.58786    302.82075 
   46670   0.96417948   -9389.0348    108.78761    303.63491 
   46680   0.96430027   -9393.4597    146.78558     308.5674 
   46690   0.96422345   -9397.8284     349.5584    300.91253 
   46700   0.96376141   -9402.5307    267.08357    297.78674 
   46710   0.96296877   -9406.8641    23.103516     297.8025 
   46720    0.9621134   -9410.8018   -183.07838    299.62824 
   46730   0.96141955   -9414.3228   -139.78782    295.94247 
   46740   0.96087688   -9417.5539    -113.5053    291.53899 
   46750   0.96046868   -9420.6996   -247.31757    296.03361 
   46760    0.9603154   -9423.3232   -182.01328     295.1909 
   46770   0.96039007   -9425.9424   -184.56995    302.68979 
   46780   0.96066004   -9428.2202    44.299716    294.76178 
   46790   0.96092667   -9430.7228    41.519997    296.85184 
   46800   0.96114303   -9433.0315    13.465905    302.23524 
   46810   0.96135883   -9435.3758   -42.871287    300.96894 
   46820   0.96162917   -9437.6992   -38.103053    300.09541 
   46830    0.9619369   -9439.7031    170.34399    290.61301 
   46840   0.96209672   -9441.7754    60.045103    292.58766 
   46850   0.96218315   -9443.3816   -65.131266    297.11407 
   46860   0.96233634   -9444.8568   -56.192484    299.81588 
   46870   0.96256259    -9446.404   -43.518973    300.39259 
   46880   0.96285749   -9447.8788   -73.814867    298.93971 
   46890   0.96325937   -9449.3081   -75.277054    298.52045 
   46900   0.96375322   -9450.5271    119.69664    295.30127 
   46910   0.96412458   -9451.9318    303.11075    295.59384 
   46920   0.96415162   -9453.4372    326.20885    297.26041 
   46930   0.96378701   -9454.8266    254.52521     294.5107 
   46940   0.96311167   -9456.0243    107.09734    295.60774 
   46950   0.96227037   -9457.1951    27.571166    296.09748 
   46960   0.96136966   -9457.9744    -77.81072    293.88888 
   46970   0.96053126   -9458.4282   -194.78937    294.10867 
   46980   0.95987988   -9458.7416   -141.33287    293.56196 
   46990   0.95939648   -9459.2157   -215.46416    298.43341 
   47000   0.95914002   -9459.3011   -164.23711    292.48583 
   47010   0.95909502   -9459.2703   -204.72503    293.80873 
   47020   0.95927984   -9459.0207   -144.36408    292.53623 
   47030   0.95966086   -9459.0106   -197.23357    299.63227 
   47040   0.96025359   -9458.8175   -5.2285509    298.75534 
   47050   0.96087808    -9458.889    182.60941     297.7095 
   47060   0.96130751   -9458.9334    296.55141    293.17122 
   47070   0.96142562   -9459.0027    163.23598    293.45383 
   47080   0.96135149   -9458.9625   -47.341418    299.00514 
   47090   0.96130791   -9458.6477   -71.604267     298.7789 
   47100    0.9613623   -9458.3183   -157.77509    304.43405 
   47110   0.96158107    -9458.108   -68.903631    304.66669 
   47120   0.96189267   -9458.2252    40.740481    304.77076 
   47130   0.96215915   -9458.5686    189.10146    298.31593 
   47140   0.96223195   -9459.2957    173.41277     297.2913 
   47150   0.96208766   -9459.7972     214.0322    293.49136 
   47160   0.96168867   -9460.2513    202.93908    290.30614 
   47170   0.96105007   -9460.6736    9.9048882    296.60105 
   47180     0.960356   -9460.6384   -29.665226    291.43346 
   47190   0.95971682   -9460.4017   -331.29816    297.58424 
   47200   0.95943987   -9459.7469   -509.71329    302.78021 
   47210   0.95972754   -9459.1847   -240.81455    294.29869 
   47220   0.96033324   -9458.7754   -11.502384    290.23441 
   47230   0.96098967   -9458.3335    65.275736    290.85205 
   47240   0.96159051   -9457.6923    58.736303    297.05608 
   47250   0.96211552   -9456.8555    197.01982    296.48399 
   47260   0.96242324   -9456.1134    294.88237    296.47592 
   47270   0.96238206   -9455.2613    338.83508     294.4996 
   47280   0.96194314   -9454.4291    249.95904    296.62034 
   47290   0.96118354   -9453.4087    165.01317    293.64038 
   47300   0.96022643   -9452.0015   -79.313274    293.70536 
   47310   0.95934676   -9449.8189   -393.95119    298.85059 
   47320   0.95888325    -9447.171   -385.49228    296.02709 
   47330   0.95885799   -9444.3524   -166.22415    293.14551 
   47340   0.95903892   -9441.6196    7.3760659    297.01546 
   47350   0.95921575   -9438.5328    118.08696    296.05314 
   47360   0.95928612   -9435.0886   -47.587847    299.63023 
   47370   0.95941084   -9431.0011   -182.24022    299.84529 
   47380   0.95975466   -9426.7041   -181.72494    296.41579 
   47390   0.96034175    -9422.256   -225.49076    302.83997 
   47400   0.96119433    -9417.607   -40.108598     304.7276 
   47410    0.9621105   -9412.7704    319.77749    299.27653 
   47420   0.96269759   -9408.1433    506.68983    297.58665 
   47430   0.96270736   -9403.6444    468.61487    298.28407 
   47440   0.96215677   -9398.8269    260.46195    301.16063 
   47450   0.96126933   -9393.8833    49.666147    299.97736 
   47460   0.96028945   -9388.6934   -89.376752     297.4529 
   47470   0.95937973   -9383.7586   -170.83737    303.47674 
   47480   0.95860744   -9378.5384    40.886894    295.65269 
   47490   0.95780779    -9373.773   -76.978518    297.42002 
   47500   0.95708743   -9368.8173   -391.47674    307.26416 
   47510    0.9567828   -9363.9744   -416.55739    307.26611 
   47520   0.95695496   -9359.7222   -242.03735    306.82969 
   47530   0.95741645   -9356.0412    25.131225    308.87824 
   47540   0.95786679   -9353.0535    253.63334    308.50942 
   47550   0.95803102   -9350.8315    434.69227    301.73468 
   47560   0.95769762   -9348.9965    457.93672    295.11773 
   47570   0.95683278   -9347.3568    128.88163    298.42638 
   47580   0.95578909   -9345.4495   -358.03374    307.71155 
   47590   0.95509327   -9343.0639   -458.58894    300.88725 
   47600   0.95494049   -9341.2694   -511.35516    304.62591 
   47610   0.95536646   -9339.6706   -278.31777    304.39105 
   47620   0.95615444   -9338.4557   -47.643774    304.88264 
   47630   0.95704154   -9337.7468    103.88495    305.87129 
   47640   0.95785037   -9337.3195    187.38865    304.87615 
   47650    0.9584543   -9337.0885    367.78557    299.44911 
   47660   0.95865096   -9337.2638    426.59714    298.76333 
   47670   0.95836178   -9337.5819    223.15673     303.6762 
   47680   0.95776871   -9337.7103    129.71353    299.09389 
   47690   0.95701042    -9337.958   -50.545221    299.55354 
   47700   0.95628235   -9337.9714    -254.6612    302.36104 
   47710   0.95581227   -9337.9398   -276.46445    299.26091 
   47720   0.95567257   -9337.9841    -325.5582    300.64639 
   47730   0.95590763    -9337.963   -253.18311    301.20497 
   47740   0.95644706   -9338.1224   -13.777765    298.40686 
   47750   0.95703256   -9338.5715    164.85492     297.1573 
   47760   0.95747358   -9338.9908     58.01295    298.70103 
   47770   0.95787665   -9339.5956   -216.83113    307.60783 
   47780   0.95851926    -9340.052   -188.07146    306.59231 
   47790   0.95940979    -9340.849    8.1120092    302.56003 
   47800   0.96034283   -9342.0887    107.70559    306.97952 
   47810   0.96116403   -9343.5264    322.83532    305.03353 
   47820   0.96163075   -9345.2725    523.53132    297.57212 
   47830   0.96151894   -9347.3228    400.10026    296.20897 
   47840   0.96093366   -9349.3014    106.03657    298.07663 
   47850   0.96018177   -9350.7742   -79.631908    295.93941 
   47860   0.95951136   -9352.0138    -327.7318    301.83657 
   47870   0.95917996   -9353.2212   -321.78234    304.16945 
   47880   0.95920473   -9354.7918   -124.30538    300.60822 
   47890   0.95941059   -9356.6388   -132.05405    299.16365 
   47900    0.9597953   -9358.1896   -220.40448    296.77325 
   47910   0.96046696   -9360.1912   -317.83989    307.41322 
   47920   0.96149205   -9362.4182     2.894513    305.83976 
   47930   0.96255492   -9365.1731    378.37487    299.85614 
   47940   0.96322003    -9368.119     505.8186    300.37666 
   47950   0.96332073   -9371.3769    332.56119    304.08692 
   47960   0.96302028   -9374.7328    116.14774    304.98006 
   47970   0.96255887   -9378.1608    21.244627    301.43498 
   47980   0.96207059   -9381.7754   -111.08549    301.21287 
   47990   0.96170234   -9385.0705   -205.58628    298.14871 
   48000   0.96157565   -9388.8576   -309.03877    307.28212 
   48010   0.96177039   -9392.6267    -75.70224    303.22468 
   48020   0.96207177   -9396.8506    138.75386    299.73805 
   48030   0.96222617   -9401.3562    207.90172    299.81193 
   48040    0.9621406   -9405.8221    170.56861    297.97224 
   48050    0.9618582   -9410.2111    43.146826    298.33684 
   48060   0.96150381    -9414.457    2.4861169    299.19449 
   48070   0.96112347   -9418.3815    80.293697    294.90743 
   48080   0.96066629   -9422.6085   -95.445484     304.3582 
   48090   0.96026381   -9426.3885    37.026371    297.46648 
   48100   0.95984018   -9430.0967   -9.4657576    295.50724 
   48110   0.95942161   -9433.5249   -141.29884    298.39514 
   48120   0.95913052   -9436.5583   -3.3528133    291.82291 
   48130   0.95885053   -9439.4459    50.526477    293.42909 
   48140   0.95849475   -9441.9962    107.87459    291.74425 
   48150    0.9580153   -9444.0419    21.224806    288.61711 
   48160   0.95752169   -9445.5256   -267.27796    291.04369 
   48170   0.95732672   -9446.4283   -472.77572    296.73473 
   48180   0.95766443   -9447.2422   -393.35493    300.43167 
   48190   0.95847595   -9448.1535   -186.28744    298.86467 
   48200   0.95954882   -9449.2506   -69.638718    302.46623 
   48210   0.96073155   -9450.4983    42.961313    304.56637 
   48220   0.96190684   -9451.7775    102.39017    303.43179 
   48230   0.96298392    -9452.965    252.17519    298.13667 
   48240   0.96380031   -9454.2735    318.51303    298.06337 
   48250   0.96424761   -9455.4036    367.14632    295.70368 
   48260   0.96428299   -9456.5891    257.31244    299.29157 
   48270   0.96398512   -9457.4447    259.33745    296.42696 
   48280    0.9633785   -9458.3545    198.92773    292.73726 
   48290   0.96252901   -9458.9345    27.263054     288.5393 
   48300   0.96164384   -9458.9947   -296.30621    293.62145 
   48310   0.96105754   -9458.6326   -349.59966    293.82171 
   48320   0.96085995   -9458.0413   -185.21796    289.06613 
   48330    0.9608989   -9457.5708   -125.09563    290.01548 
   48340    0.9610861    -9456.737   -43.060207    287.03445 
   48350   0.96136069   -9456.0052   -168.71106    294.58254 
   48360   0.96181311    -9454.888   -82.474604    294.46048 
   48370   0.96236982   -9453.8078    146.27537    290.92623 
   48380   0.96278516     -9452.84    225.43791    290.71946 
   48390    0.9629652   -9451.7921    47.760074    300.51393 
   48400   0.96305021    -9450.538    153.76298    297.43754 
   48410   0.96296969    -9449.402    217.51932    292.03348 
   48420   0.96263889   -9448.3606    129.43366    293.82192 
   48430   0.96213663   -9447.1272    55.231387    295.37034 
   48440   0.96154283   -9445.8548    18.635073    299.81051 
   48450   0.96087594   -9444.4544    192.29479    291.04346 
   48460   0.96000103   -9443.2246   -15.359463    295.57187 
   48470   0.95910516   -9441.6443   -266.07189    297.74533 
   48480   0.95849185   -9439.6483   -404.26207    297.48488 
   48490   0.95834635   -9437.6017    -479.1784    300.07597 
   48500   0.95875129   -9435.7455   -317.07421    301.68671 
   48510   0.95954247   -9434.1815    17.930311    297.15806 
   48520   0.96035792   -9432.5894    281.79133      287.486 
   48530   0.96090777   -9431.1195    185.19452    292.48011 
   48540    0.9612471   -9429.3646    29.097371    300.74704 
   48550   0.96154061   -9427.3906    29.302645    305.50789 
   48560    0.9617873   -9425.7258    248.15478     300.3758 
   48570   0.96176257   -9424.3292    328.35786    300.02239 
   48580   0.96133928   -9423.2025    300.11695    303.12866 
   48590   0.96052747   -9422.3435    289.18717    302.55764 
   48600   0.95932732   -9421.7778    286.46882    298.27652 
   48610   0.95776139   -9421.0902    62.152353    293.94243 
   48620   0.95607648   -9419.8772   -280.39417    294.97808 
   48630   0.95464989   -9418.1277   -399.30405    293.77654 
   48640   0.95364755   -9416.1453    -389.9205    294.04038 
   48650   0.95308608    -9414.002    -384.0019    295.65479 
   48660   0.95295843   -9411.7619   -278.41622    291.01569 
   48670    0.9531849   -9409.6339   -285.12171    294.77067 
   48680   0.95374847   -9407.1251   -186.49757    298.31567 
   48690   0.95454387   -9404.8349    82.104254    295.99659 
   48700   0.95527965    -9402.705    303.78907    293.37496 
   48710   0.95569595   -9400.6144    310.81128    291.21363 
   48720   0.95576965   -9398.1387    145.31988    290.31375 
   48730   0.95566813   -9395.3321   -45.037634    294.85666 
   48740   0.95560709   -9392.1611   -176.58068    301.05071 
   48750   0.95574559   -9388.7049   -190.87855    301.17657 
   48760   0.95612308   -9385.3379    -159.7774    299.96679 
   48770   0.95670887   -9382.2466   -118.56905    304.15495 
   48780   0.95744198   -9379.3212    33.767141    305.48135 
   48790   0.95815957   -9376.8876    199.20569    308.52257 
   48800   0.95865347    -9374.485    426.36334    298.61335 
   48810   0.95869799   -9372.6166    289.75705    302.72713 
   48820   0.95838002   -9370.5127    158.00654    303.14938 
   48830   0.95786275   -9368.5332    32.069953    303.85544 
   48840   0.95728091   -9366.6781   -40.511247    306.34609 
   48850    0.9567329   -9365.0164   -175.13746    309.20687 
   48860   0.95636947   -9363.4329   -247.71291     307.9223 
   48870   0.95627971   -9362.0406   -139.42985    300.96588 
   48880   0.95637863    -9361.179   -150.97068    303.77891 
   48890   0.95663105   -9360.0391    40.509075    300.56482 
   48900   0.95687043    -9359.372    47.605673    304.28316 
   48910   0.95705857   -9358.7479    30.653091    302.96648 
   48920   0.95723538   -9358.1414   -79.727003    300.38786 
   48930   0.95752353   -9357.7435   -274.13832    311.37478 
   48940   0.95809576   -9357.4141   -29.488265    305.96204 
   48950    0.9587316   -9357.6907    242.55865    303.46529 
   48960   0.95909411   -9358.2461    450.72293    298.65147 
   48970   0.95896803   -9359.1052    267.40732    302.32646 
   48980   0.95850909   -9359.9208    64.660909    303.26245 
   48990   0.95795834   -9360.8294   -89.873932    305.48228 
   49000   0.95748688   -9361.9961   -155.32552    307.30258 
   49010   0.95717755   -9363.1841   -92.355167    301.25986 
   49020   0.95698352   -9364.8458   -71.451935    300.60562 
   49030   0.95685476   -9366.7867    50.995666    299.25201 
   49040   0.95667078   -9369.1578    75.411559    299.32583 
   49050   0.95638243   -9371.7269    124.61593    293.81432 
   49060   0.95596004   -9374.4712   -3.4385581    292.92344 
   49070    0.9555426   -9377.3419   -281.32334    301.56686 
   49080    0.9554108   -9380.3426   -236.79457    298.75799 
   49090   0.95557301   -9383.8735   -182.82561    299.35567 
   49100   0.95595629   -9387.8837   -124.40671    301.40638 
   49110   0.95649886     -9392.36   -15.868681    296.90114 
   49120   0.95707823   -9397.4753    72.888838    297.78137 
   49130   0.95757659   -9402.8836    192.92155    295.48476 
   49140    0.9578857   -9408.7024    97.612319     292.9696 
   49150   0.95810039   -9414.5608   -114.14228    296.90233 
   49160   0.95843177   -9420.4586   -108.10215    298.88211 
   49170    0.9588941   -9426.5596   -11.102294    297.85049 
   49180   0.95939533    -9432.932   -33.628386    302.04308 
   49190   0.95992488   -9439.2362    120.66556    298.65932 
   49200    0.9603212   -9445.2731    352.47729     289.9676 
   49210   0.96032861   -9451.1174    381.66098    289.61118 
   49220   0.95987471   -9456.3103     335.5667    290.12023 
   49230   0.95901782   -9461.1858     128.2073    292.09118 
   49240   0.95798006   -9465.3033   -128.57439    295.93987 
   49250   0.95704741   -9468.7227   -196.69964    291.30417 
   49260   0.95633162   -9471.6634   -224.64364    287.60758 
   49270   0.95587385   -9474.1462   -287.26466    290.88304 
   49280   0.95573829   -9476.1718   -251.12679    298.06605 
   49290   0.95586373   -9478.3349    83.535795    295.40082 
   49300   0.95591234   -9480.3616    285.58329    290.11236 
   49310    0.9556457   -9482.1713    207.80435    289.07141 
   49320   0.95512378   -9483.5935    48.351303    288.52874 
   49330    0.9545343   -9484.5409   -152.59701    291.35106 
   49340   0.95409448   -9485.0358   -218.40408    287.04619 
   49350   0.95392192   -9485.1256   -369.44541    290.39363 
   49360   0.95417537   -9484.9749   -413.60718    295.21017 
   49370   0.95492712   -9484.7569   -273.30064    291.39927 
   49380   0.95604098   -9484.7119   -105.62091    295.28031 
   49390   0.95730654   -9484.6057     182.7033    292.01028 
   49400   0.95840772   -9484.3391    384.11222     284.7666 
   49410   0.95910576   -9483.9919    377.45112    287.41993 
   49420   0.95934974   -9483.2099     457.5666    286.42378 
   49430   0.95906728   -9482.2488    318.32892    287.56107 
   49440   0.95842182   -9480.9663   -140.57801    295.00572 
   49450   0.95789103   -9478.8465   -310.47846    291.79387 
   49460   0.95771192   -9476.6191   -300.79205    289.51703 
   49470   0.95789052   -9474.2155   -246.14878    288.86805 
   49480   0.95837199    -9471.912   -151.18154     290.1718 
   49490   0.95905072   -9469.2958   -38.246992    290.37328 
   49500   0.95982274   -9466.4991   -77.213481    292.89507 
   49510   0.96070833   -9463.7147   -28.574471    296.37067 
   49520   0.96164156   -9460.7954    231.99367    292.65503 
   49530   0.96234466   -9458.1921    405.52462    290.13635 
   49540    0.9625988   -9455.2275    390.16576    290.94071 
   49550   0.96239713     -9452.12    234.67454    293.37663 
   49560   0.96190782   -9448.9548    15.425882      296.983 
   49570   0.96137251   -9445.4198   -140.50668    296.82945 
   49580   0.96097791   -9442.0951   -207.85539    299.09159 
   49590   0.96080408   -9438.7607   -117.23676    299.68727 
   49600   0.96075853   -9435.7266    74.325353    296.69414 
   49610   0.96062617   -9433.0256    216.23022    296.17457 
   49620   0.96023403    -9430.494    232.29718    292.88996 
   49630   0.95956422   -9427.9336    42.559498    292.67307 
   49640   0.95881486    -9425.019   -209.02997    299.32263 
   49650   0.95826049   -9422.0567   -252.19836    302.85705 
   49660   0.95796412   -9419.2606   -14.432004    294.89075 
   49670   0.95770448   -9416.9036    18.994065    297.80599 
   49680    0.9574092   -9414.4831    30.243015    296.11289 
   49690   0.95707145   -9412.3814     54.05401    292.04919 
   49700   0.95665691   -9410.0017    44.284967    288.96747 
   49710   0.95620017   -9407.7529   -221.41176    298.99255 
   49720   0.95594489   -9405.1012   -180.37463    300.20335 
   49730   0.95589182   -9402.6465   -25.263511    296.48944 
   49740   0.95588868   -9400.5571   -50.580147    295.73923 
   49750   0.95594817   -9398.4539   -56.721951    292.05271 
   49760   0.95607849    -9396.307   -35.370366    295.03696 
   49770   0.95624937   -9394.3143    20.362677    297.08867 
   49780   0.95641099   -9392.2926    2.7260335    297.91673 
   49790   0.95659188   -9390.2748   -137.44074    299.03716 
   49800   0.95694397   -9388.4028   -213.24504    299.95212 
   49810   0.95756502   -9386.7016   -193.65448    302.38438 
   49820   0.95844009   -9385.2702   -101.82605    308.24436 
   49830   0.95945059   -9384.1769     186.4829    304.75489 
   49840    0.9602697   -9383.5712    514.04413    299.73324 
   49850   0.96052594   -9383.3101    575.44841    294.70718 
   49860   0.96013204   -9383.1846    255.74301    296.48813 
   49870   0.95941977    -9382.673   -156.01121    301.40369 
   49880   0.95883954   -9381.5781      -286.17    299.81884 
   49890   0.95857693   -9380.6915   -256.54185    299.81297 
   49900   0.95861947   -9380.0257   -225.02508    300.26244 
   49910   0.95892163   -9379.3598   -85.366424    295.19378 
   49920   0.95934931   -9378.9123   -40.679325    297.38548 
   49930   0.95985176   -9378.3991    -141.9287     305.4478 
   49940   0.96051987   -9377.9117   -63.227843    300.90152 
   49950   0.96129795    -9377.741    60.464881    295.95884 
   49960   0.96203555   -9377.6137    142.24663    297.28511 
   49970   0.96260866    -9377.566    260.24192    297.80005 
   49980   0.96289973   -9377.4359    231.44398    300.18134 
   49990   0.96292985   -9377.2965    78.194811    300.81231 
   50000   0.96286315    -9377.271   -11.585085     301.0305 
   50010   0.96278707   -9377.2972     46.31222    299.86121 
   50020   0.96265695   -9377.5527    54.217591    304.43317 
   50030   0.96244992   -9377.8716     124.1529    298.01849 
   50040   0.96211163   -9378.1876    59.286167    296.04236 
   50050   0.96168446   -9378.3447    31.536679    294.33514 
   50060   0.96120523   -9378.6496   -18.466796    299.83582 
   50070   0.96070055   -9378.6935    144.41692    290.04684 
   50080   0.96007003   -9378.6815   -113.39346    295.47006 
   50090   0.95953221   -9378.4598   -267.74176    301.71682 
   50100   0.95927446   -9378.1213   -156.32441    299.64939 
   50110   0.95920942   -9378.0704   -118.05711     303.6912 
   50120    0.9592841   -9378.1984   -74.327833    303.74032 
   50130   0.95945565    -9378.564   -17.875907    302.73123 
   50140    0.9596402   -9379.0806    160.69289    301.44247 
   50150   0.95963813   -9379.7827    318.78962    297.45885 
   50160   0.95928079   -9380.6775    182.17955    297.37263 
   50170    0.9586972   -9381.3307   -41.118977    301.68053 
   50180   0.95812056   -9381.9489   -54.014119    300.26156 
   50190   0.95758593   -9382.5998    8.1377759    296.10292 
   50200   0.95704771    -9383.485   -112.63292    297.06473 
   50210    0.9566272   -9384.2507   -238.18498    298.25085 
   50220   0.95646988   -9384.6964   -237.93643    296.37783 
   50230   0.95661391   -9385.2892   -325.41023    298.19033 
   50240   0.95716061   -9386.0026   -432.32875    302.27539 
   50250   0.95823443   -9387.1851   -396.29589    309.10441 
   50260    0.9597792   -9388.8891    16.034803    302.86389 
   50270   0.96139058   -9390.8703    240.99351      302.469 
   50280    0.9627624   -9393.3213    382.69499    304.56033 
   50290    0.9637001   -9395.9555    568.47084    299.94559 
   50300   0.96400733    -9399.298    486.47107    302.98918 
   50310   0.96372227   -9403.0482    433.60075    300.53236 
   50320   0.96291113   -9407.3561    316.30113    298.84141 
   50330   0.96169704   -9411.8554    141.53198    294.62521 
   50340   0.96030166   -9416.5862    -223.0252      300.083 
   50350   0.95910693   -9421.0821   -394.55291    302.22731 
   50360    0.9583511    -9426.271   -458.60046    305.41614 
   50370   0.95810631    -9431.822   -318.01429    296.44102 
   50380   0.95826882   -9437.8638   -315.17716    294.58758 
   50390   0.95881394   -9444.3181   -297.04805    297.83867 
   50400   0.95971095   -9450.9113   -55.730403    294.39115 
   50410    0.9607057   -9457.4626    209.17788     290.0391 
   50420   0.96150002   -9463.7728    314.94605    287.92214 
   50430   0.96196225   -9469.7335    189.84014    291.16269 
   50440    0.9622129   -9474.9992    13.705924    291.49533 
   50450   0.96245569   -9479.8204   -155.19998    296.89116 
   50460   0.96286231   -9484.3864   -119.36822    301.07821 
   50470   0.96339913   -9488.7043    168.23226    296.31961 
   50480   0.96376335   -9492.9066    397.52056    292.90871 
   50490   0.96368012   -9496.7547    411.70867    290.04723 
   50500    0.9631257   -9499.9827    122.32354    291.70835 
   50510   0.96241096   -9502.4945    -280.2954    298.83422 
   50520    0.9619706   -9504.3762   -354.81116    296.54791 
   50530   0.96192905   -9506.2108   -193.42393    291.30209 
   50540     0.962134   -9507.8525    -98.34528    290.95191 
   50550   0.96247752   -9509.1562    -80.64205    290.58911 
   50560   0.96292939   -9510.2474   -26.895199     292.2252 
   50570   0.96343191   -9511.1602    60.488658    295.12858 
   50580   0.96387865   -9512.0221    174.25912     295.0673 
   50590   0.96412868   -9512.7918    308.16569    294.53789 
   50600   0.96401768    -9513.464     382.8981    289.24342 
   50610   0.96347639   -9514.1227    114.51363    291.81191 
   50620   0.96275924   -9514.3028   -125.16281    299.79639 
   50630   0.96211394   -9514.1641    26.556236    291.45196 
   50640   0.96144105   -9514.2327    -9.080525    291.90492 
   50650   0.96074655   -9513.9153   -77.544205    291.77148 
   50660   0.96012917   -9513.4002   -241.64285     294.0739 
   50670   0.95976518   -9512.5959   -314.44391    294.69872 
   50680   0.95976256   -9511.7146   -299.80617    291.85637 
   50690   0.96011738    -9510.738    -180.1527    290.10953 
   50700   0.96070599   -9509.5874   -10.044867    289.00847 
   50710   0.96134471   -9508.3348    68.923069    292.89596 
   50720   0.96191467   -9506.9645    245.77925    290.02842 
   50730   0.96223238   -9505.5227     253.8679    292.60716 
   50740   0.96226232    -9503.958    122.37874    297.63339 
   50750     0.962129   -9502.2491    93.104594    294.26469 
   50760   0.96188655   -9500.5415   -3.1718622    295.53935 
   50770   0.96163417   -9498.5665   -79.497541    294.77999 
   50780   0.96146194   -9496.4134   -80.304435    297.11053 
   50790   0.96135389   -9494.2741     139.5892    288.96877 
   50800    0.9611133   -9492.2492    82.852846    291.47311 
   50810   0.96075539   -9489.9079    17.029142    291.83886 
   50820   0.96036075   -9487.3578   -17.621325    290.33948 
   50830   0.95998184   -9484.6622   -172.16787    295.81439 
   50840   0.95978544   -9481.4674   -226.70737    295.48063 
   50850   0.95984342   -9478.3018   -86.051925    292.50483 
   50860   0.96002267   -9475.2073   -30.129892    296.48892 
   50870   0.96024423   -9472.1891    10.346445    297.88933 
   50880   0.96045247   -9469.1303    135.68024    295.99913 
   50890   0.96050103   -9466.2817    252.88202    297.39287 
   50900   0.96023533    -9463.607    354.23366    293.25172 
   50910   0.95957197   -9460.9997    134.40444    292.47116 
   50920   0.95874826   -9458.0067   -248.99599    297.39223 
   50930   0.95817623     -9454.48   -404.83703    297.75895 
   50940   0.95806278   -9451.1521   -358.77718    295.99643 
   50950   0.95837131   -9447.9964   -222.45149    298.54486 
   50960    0.9589446   -9444.8938    37.097402    293.76462 
   50970   0.95950883   -9442.1865    161.39128    293.79735 
   50980   0.95988694    -9439.302    288.69945    289.98112 
   50990   0.95996143   -9436.6639     173.6228     294.2193 
   51000   0.95981663   -9433.8747    48.866609     299.5419 
   51010   0.95959635   -9431.1213    32.233954     298.5004 
   51020   0.95933068   -9428.3173    39.966644    295.32307 
   51030   0.95902834   -9425.8744   -100.18734    301.54715 
   51040   0.95881132   -9423.3541   -48.448511    299.41627 
   51050   0.95864686   -9421.0928    62.204843    297.27144 
   51060   0.95842035   -9419.1212   -8.0229674    301.82958 
   51070   0.95818346   -9417.2119    13.569563    299.77918 
   51080   0.95792797   -9415.6406    75.514673    297.62198 
   51090    0.9575724   -9414.3379    160.48069    291.61221 
   51100   0.95704475   -9412.9305   -19.513942    294.41775 
   51110   0.95651953   -9411.3943   -219.79369    302.05242 
   51120   0.95620713   -9409.5902   -106.19969    296.70892 
   51130   0.95604562    -9408.281   -181.59361    300.25254 
   51140    0.9560802   -9406.9007   -152.81483     300.0761 
   51150   0.95630148   -9405.6924    -39.51387    296.92791 
   51160   0.95657309   -9404.6902    123.38399    295.79958 
   51170   0.95670472   -9403.8524    268.02727    293.64528 
   51180   0.95655598   -9402.9129    26.688514    300.61615 
   51190   0.95635879   -9401.9856    -196.3543    307.53554 
   51200   0.95635749   -9401.0178   -83.611646    301.33877 
   51210   0.95646764   -9400.5037    8.4405636    298.15813 
   51220   0.95658064   -9400.0324    22.802242    297.07553 
   51230   0.95667872   -9399.4903   -9.9440315    296.63025 
   51240   0.95678362   -9398.8379    48.455106    292.76835 
   51250   0.95684875   -9398.2529   -13.732128     296.4088 
   51260   0.95692218   -9397.6339    2.5922759    292.60522 
   51270   0.95701022    -9396.891   -38.160455    291.25131 
   51280   0.95714999   -9395.9042   -93.688575    292.82037 
   51290    0.9574015   -9394.6586   -76.695247    294.92351 
   51300   0.95774713   -9393.4574    38.282473    294.90125 
   51310   0.95805766   -9392.4771    149.33534    295.97191 
   51320   0.95820272   -9391.3972     186.3373    297.25032 
   51330   0.95812795   -9390.4169    166.07716    297.99212 
   51340   0.95786337   -9389.2467    13.373734    299.78069 
   51350   0.95756865   -9388.0973   -111.14112    299.63253 
   51360   0.95739449   -9387.1067   -185.58285    303.74883 
   51370   0.95741568     -9386.01   -71.785752    298.04672 
   51380   0.95755413   -9385.2434   -106.50118    300.85138 
   51390   0.95779611   -9384.5087    13.469063    303.67355 
   51400   0.95803881   -9383.9986    91.911504    300.75101 
   51410    0.9581985   -9383.5162    16.966188    298.92676 
   51420   0.95834582   -9383.3249   -52.487683    300.99276 
   51430   0.95856117   -9383.1137   -94.646732    302.60287 
   51440   0.95890806   -9382.8496   -108.88498    299.94677 
   51450   0.95940262   -9382.7358   -58.267118     300.3641 
   51460   0.95998448   -9382.8134    18.496411    303.86257 
   51470    0.9605825   -9382.9778   -22.327957    300.96074 
   51480   0.96125509   -9383.1504   -144.22714    299.96876 
   51490   0.96212149   -9383.6381   -71.389755     301.7154 
   51500   0.96310812   -9384.0093     104.2203    299.51664 
   51510   0.96404757   -9384.8177    29.234992    308.76297 
   51520   0.96495753   -9385.7808      173.045    308.92882 
   51530   0.96569123   -9387.1554     455.1135    300.53661 
   51540   0.96593504    -9388.688    506.50298    296.88206 
   51550   0.96558999   -9390.2532    365.65648    294.71027 
   51560   0.96478328   -9391.8101    190.44391    296.60855 
   51570   0.96370509   -9393.1898    42.569655    296.66142 
   51580   0.96254502   -9394.5051    -212.6683    299.61886 
   51590   0.96158273   -9395.1294   -368.80917    299.76157 
   51600   0.96101744   -9396.0361   -380.64185    303.58005 
   51610   0.96086855   -9397.0421    -217.5236    296.03456 
   51620    0.9610117   -9398.3302   -263.83895    298.22651 
   51630     0.961457   -9399.5361   -138.30492    298.46566 
   51640   0.96208357   -9400.9188    92.407832    296.27868 
   51650   0.96263064   -9402.5026    242.77265    295.37447 
   51660   0.96292389   -9403.9852    203.62587    293.06222 
   51670   0.96300224   -9405.5404    -49.33253    300.85611 
   51680   0.96310667   -9407.0892   -63.593007     302.5843 
   51690   0.96328728   -9408.8405     44.97657    299.01953 
   51700   0.96343336   -9410.7448    74.636014    299.51606 
   51710   0.96349563   -9412.9215    52.847688    301.09084 
   51720   0.96348763   -9415.3107    61.822879    303.01931 
   51730    0.9634004   -9418.2488    82.430182    306.63574 
   51740   0.96320244   -9421.7862    137.52283    304.70273 
   51750   0.96283437   -9425.6055    195.40039    297.34921 
   51760   0.96223863   -9430.1064    90.652506    296.48282 
   51770   0.96150982   -9434.6822   -39.739701    296.27911 
   51780   0.96079815   -9439.6776    -153.5392    301.56081 
   51790   0.96021551   -9444.9998   -37.977358     299.0505 
   51800   0.95966406   -9451.0502    83.928622    292.29931 
   51810   0.95902281   -9457.0727    4.7135424    287.41154 
   51820    0.9583672   -9463.2083   -178.55436    289.53614 
   51830   0.95788503     -9469.04   -236.12438     289.8229 
   51840    0.9576789   -9474.7828   -316.13162    292.52543 
   51850   0.95783009   -9480.4169   -256.70883    291.72358 
   51860   0.95829583   -9485.9587   -137.21157    291.25394 
   51870   0.95893683   -9491.2923    38.536649    290.26642 
   51880   0.95955248   -9496.2474    223.99573    283.73911 
   51890   0.95995839   -9500.6488     95.05513    284.66909 
   51900   0.96027445   -9504.6033     -194.822    295.79969 
   51910   0.96081003   -9508.1773   -295.26332    303.00931 
   51920   0.96169048   -9511.4063   -77.887636    295.48607 
   51930   0.96270351   -9514.6096    148.95636    291.49642 
   51940     0.963572   -9517.6225    302.03156    295.48663 
   51950   0.96409374   -9520.1556    459.16835    289.81275 
   51960    0.9641212   -9522.5463    270.04065    291.90196 
   51970   0.96379912   -9524.3193    215.41804     286.1287 
   51980   0.96323012   -9525.6852    15.170344      289.478 
   51990   0.96262308   -9526.5544   -260.03051     296.6933 
   52000   0.96228845   -9526.9272   -337.68476    293.38943 
   52010   0.96235882   -9527.1987   -381.79665    297.23718 
   52020   0.96288359   -9527.4716   -347.61102     299.4843 
   52030    0.9638333   -9527.7541   -155.58811     292.5574 
   52040   0.96501472   -9528.1314    9.3566982     292.5588 
   52050   0.96622559   -9528.5664    152.18368    294.32016 
   52060   0.96728615   -9528.6808    339.92036    288.14199 
   52070   0.96800196   -9528.7445    262.60375      292.027 
   52080   0.96841687   -9528.6659    165.16069    295.20005 
   52090   0.96861964   -9528.2536    266.25487    288.20153 
   52100   0.96854578   -9527.9483    120.33189    292.74749 
   52110   0.96829787   -9527.1259    116.54179    289.51833 
   52120    0.9679093   -9526.3495    113.10919    291.23221 
   52130   0.96735389    -9525.476    202.92013    290.67924 
   52140   0.96654192   -9524.4799    201.65476    286.28222 
   52150   0.96548347   -9523.2105   -22.849868    286.10554 
   52160   0.96442502   -9521.2242   -269.74606    285.85429 
   52170   0.96365185   -9518.6299   -389.06829    286.79803 
   52180   0.96332406   -9515.9865   -452.16337    292.16026 
   52190   0.96351661   -9513.1266   -421.04341    299.74444 
   52200   0.96418538   -9510.4062   -49.980266    293.21189 
   52210   0.96495564   -9508.0909    234.14911    291.99438 
   52220   0.96546807    -9505.847     491.7464    290.80949 
   52230   0.96542371   -9503.9572    534.45133    291.17334 
   52240    0.9647503   -9501.8296    325.37046    291.34588 
   52250   0.96367236   -9499.3987   -24.342112      292.144 
   52260    0.9625877   -9496.5515   -349.80466    295.45677 
   52270   0.96185267   -9493.2958   -316.33815    293.29946 
   52280   0.96146724   -9490.1663   -145.43171    290.27262 
   52290    0.9612744   -9487.1356   -205.69019    294.63182 
   52300   0.96130772   -9483.9948   -176.29375    294.95411 
   52310   0.96154844   -9481.0848   -36.607192    290.86879 
   52320   0.96186317   -9478.2966    -39.93336    291.80039 
   52330   0.96223327   -9475.3382    -2.164716    292.57346 
   52340   0.96261758   -9472.5251     65.38341    295.85958 
   52350   0.96292412   -9469.7438    232.61065    291.60967 
   52360   0.96298602   -9467.2097     219.3333    292.27011 
   52370   0.96278917   -9464.5075    94.439972    296.28972 
   52380   0.96246209    -9461.689  -0.87237697    297.66006 
   52390   0.96211227   -9459.0638    16.160864    294.89685 
   52400   0.96173041   -9456.4676    51.539278    291.78892 
   52410      0.96129   -9454.0513   -95.607456    298.97276 
   52420   0.96092957   -9451.5532   -159.99985    300.03326 
   52430   0.96075205     -9449.11   -174.14806    297.48207 
   52440   0.96078934   -9446.8612   -214.45146    297.50811 
   52450   0.96109158   -9444.8827   -268.41686    301.38724 
   52460   0.96171164   -9442.9711   -144.02367    299.23069 
   52470   0.96252462   -9441.4523    92.379879    296.12548 
   52480   0.96325874   -9440.0528    320.30102     294.4085 
   52490   0.96365712   -9438.6438    339.14896    295.96183 
   52500   0.96366203   -9437.4114    262.36527    297.26356 
   52510   0.96335443   -9436.1043     102.7506    296.92009 
   52520   0.96291966   -9434.5544   -167.28963    298.16091 
   52530   0.96267592   -9432.9272   -457.15858    305.04073 
   52540   0.96292715   -9431.2891    -294.2283    301.25285 
   52550   0.96354612   -9430.2253    -17.70108    304.11016 
   52560   0.96418896   -9429.4668    388.59024    299.61905 
   52570   0.96441664   -9429.0648    519.23881     295.8302 
   52580   0.96405178   -9428.8143     328.8424    297.10995 
   52590     0.963273   -9428.4279    123.56404    294.77266 
   52600   0.96232887   -9427.7486   -166.22417    299.45893 
   52610   0.96154638   -9426.4996   -398.44109    302.46329 
   52620   0.96121175   -9425.4729    -491.7043    304.57324 
   52630   0.96142468   -9424.6436   -233.72832    300.48395 
   52640   0.96193803   -9424.2012   -3.0506149    302.27754 
   52650   0.96247831   -9424.0928    124.60687     306.3973 
   52660   0.96285941   -9424.1686     414.7648    295.98197 
   52670   0.96279924   -9424.5759    343.66243    294.31625 
   52680   0.96233586   -9424.6682    70.603239    296.26486 
   52690   0.96176865   -9424.6483   -147.57902    299.33135 
   52700   0.96134664    -9424.236   -220.83394    299.60532 
   52710   0.96118027    -9424.134   -276.07529    306.24652 
   52720   0.96130084   -9424.1042   -2.4664505    302.60806 
   52730   0.96143896   -9424.2542    279.93482    289.98866 
   52740    0.9613079   -9424.7445    30.070598    298.42927 
   52750    0.9611032   -9424.7824   -76.402718    302.76881 
   52760   0.96095565   -9424.9904    85.927654    295.28124 
   52770   0.96073331   -9425.1669    45.948549    294.19923 
   52780   0.96045804    -9425.114   -104.32202    292.91885 
   52790   0.96029848   -9424.8921   -230.01962    291.52835 
   52800   0.96041079   -9424.3917   -330.98536    297.03468 
   52810    0.9609115   -9423.8044   -306.64205    307.02424 
   52820   0.96176173    -9423.677    10.070734    306.41114 
   52830   0.96263294   -9423.8963    296.99645    300.71025 
   52840   0.96319421   -9424.2672    376.53811    294.47725 
   52850   0.96334805   -9424.5954     193.9068    293.83543 
   52860   0.96327707    -9424.819   -62.806119    299.51588 
   52870   0.96324906   -9424.8483   -94.154304    300.23244 
   52880   0.96333023   -9424.9534   -56.200471    298.40499 
   52890   0.96349662   -9425.1742   -85.890743     296.8897 
   52900   0.96377576   -9425.3468   -126.53261    301.45175 
   52910   0.96418437   -9425.4073    36.482412    300.33685 
   52920   0.96457411   -9425.6371    145.35079    296.23474 
   52930   0.96481588   -9426.2199    107.24055    298.79933 
   52940   0.96493305   -9426.4513    73.011594    295.01858 
   52950   0.96498722   -9426.8699   -104.49581    299.24202 
   52960   0.96515049   -9427.1176   -136.83271    300.38632 
   52970   0.96547522   -9427.5002   -23.284496    298.10307 
   52980   0.96584467   -9428.1411     78.81132    299.86923 
   52990   0.96613072   -9428.9457    149.51245    302.23823 
   53000   0.96624571   -9430.0376    207.36806    299.74955 
   53010   0.96611728   -9431.2735    213.23803    300.27774 
   53020   0.96571964   -9432.6951    255.06783    296.49078 
   53030   0.96502869   -9434.3191    93.488277    294.74313 
   53040   0.96421213   -9435.7618   -193.01847    299.44854 
   53050   0.96357412   -9436.9704   -248.71568     296.6016 
   53060   0.96321224   -9438.3526   -236.42265    296.82521 
   53070   0.96310774   -9439.9582   -117.80314    296.15116 
   53080   0.96313737   -9441.5814    42.936776    291.57232 
   53090   0.96315289   -9443.4104   -68.820095    294.09038 
   53100   0.96325293   -9444.9699   -220.51018    299.16022 
   53110   0.96360129   -9446.6047   -164.73656    299.61811 
   53120   0.96414905   -9448.6546    31.240619    298.19373 
   53130   0.96468087   -9451.1211    231.98009     300.2804 
   53140   0.96493162   -9453.8642    542.69535    295.41788 
   53150   0.96456203   -9456.8405    607.78801    286.44739 
   53160   0.96349188   -9459.8661    178.64167    289.96809 
   53170    0.9621537   -9462.0704   -269.39765    298.23889 
   53180   0.96107653   -9463.9281   -566.73591    304.08337 
   53190   0.96061368   -9465.8681    -566.0502    302.16813 
   53200   0.96080195   -9468.0119   -341.21088    301.25604 
   53210    0.9613954   -9470.7349    54.239487    296.97121 
   53220   0.96196922    -9473.551    288.17123    293.76418 
   53230   0.96224328   -9476.2979    264.85532    289.89416 
   53240   0.96224192   -9478.8559   -42.371818    291.68099 
   53250   0.96228728   -9481.2603   -346.76983    298.67699 
   53260   0.96271226   -9483.2952   -238.40264    291.20117 
   53270   0.96346902   -9485.7611   -235.71357    298.65755 
   53280   0.96450311   -9488.0874    15.231331    297.73275 
   53290   0.96557092   -9490.6221    236.75913    294.24679 
   53300   0.96641411   -9493.1927      260.644    295.16943 
   53310   0.96697512    -9495.523    237.94444    294.05973 
   53320   0.96726214   -9497.7004     230.4722    292.63635 
   53330   0.96728205   -9499.8556    179.26873    292.37617 
   53340   0.96710387   -9501.8003    1.3918856    294.17308 
   53350   0.96691035   -9503.5596   -137.20964     299.8393 
   53360   0.96683829   -9505.3631    1.1417557    298.40028 
   53370   0.96677362   -9507.1875    83.854534    293.89449 
   53380   0.96662632   -9508.9807   -12.228615    294.86233 
   53390   0.96646393   -9510.6457    71.586575    291.76806 
   53400   0.96621611   -9512.2318     114.8085    287.73183 
   53410   0.96583499   -9513.5235   -7.7602205    288.05491 
   53420   0.96544724   -9514.3766   -127.38007    289.09608 
   53430   0.96520199   -9515.0633   -216.74961     290.6999 
   53440   0.96519946   -9515.3844   -202.90268    290.56153 
   53450   0.96543558   -9515.5383   -97.479542    288.05877 
   53460    0.9658155   -9515.4198   -86.432291    288.40196 
   53470   0.96630559   -9515.0955  -0.51270984    290.50589 
   53480   0.96680894   -9514.7376    155.16756    294.23047 
   53490     0.967131   -9514.1203     362.3254    286.63559 
   53500   0.96706878   -9513.4705    245.82944    286.18955 
   53510    0.9667043   -9512.3047    53.236638    293.66709 
   53520   0.96621992   -9510.8147    174.52704    287.23106 
   53530   0.96553022   -9509.1631     156.5016    282.44662 
   53540   0.96466182   -9506.9854   -162.79146    286.31547 
   53550    0.9639432   -9503.7694   -381.38251    290.62792 
   53560   0.96364555   -9500.1914   -423.16171    296.59392 
   53570   0.96382499   -9496.6239   -241.60662    298.25793 
   53580    0.9642855   -9493.0043    147.74402    289.36164 
   53590   0.96461853    -9489.496    283.54698    285.99308 
   53600   0.96464985   -9485.5936    80.340796    292.70687 
   53610   0.96457737   -9481.3194   -110.17971    296.14226 
   53620   0.96462518    -9476.623   -163.83748    297.14111 
   53630   0.96486139   -9472.0948   -89.153292    299.45181 
   53640   0.96519989    -9467.653    87.938758    298.81194 
   53650   0.96545392   -9463.3164    202.03964    296.35653 
   53660   0.96548792   -9459.3952    187.02754    295.52332 
   53670   0.96530549   -9455.4702    77.021913     297.7208 
   53680   0.96501283   -9451.4343    64.691722    295.73598 
   53690   0.96462398   -9447.4861    153.86637    289.06291 
   53700   0.96406868   -9443.8662   -17.872598    292.89213 
   53710    0.9635076   -9439.9207   -174.38036    295.58632 
   53720   0.96313142   -9436.0528    -221.3746    299.37549 
   53730   0.96300835   -9432.3274   -222.01401    304.50408 
   53740   0.96313314   -9428.9243   -60.525083    300.73476 
   53750   0.96334406   -9426.1191    36.819154    299.82107 
   53760   0.96350907   -9423.6991    178.48194    297.95187 
   53770   0.96346507    -9421.567    290.16883    294.38732 
   53780   0.96309713   -9419.8725    163.64129    298.44883 
   53790   0.96250165   -9417.9072    126.68982    298.63187 
   53800     0.961746   -9416.0926    34.278527    296.10386 
   53810   0.96095215   -9414.3942   -265.23649    299.62183 
   53820   0.96043116   -9412.3472   -388.30606    298.17079 
   53830   0.96035523    -9410.267   -370.93332    300.51281 
   53840   0.96069981   -9408.7483   -130.69119    299.05036 
   53850   0.96120372    -9407.373    225.71582    290.10381 
   53860   0.96150401   -9406.2443    159.59355     296.5348 
   53870   0.96160958   -9404.9379    68.194394    300.07002 
   53880   0.96164398   -9403.7378   -87.114794    305.40491 
   53890   0.96176426   -9402.7991   -93.530706    305.51935 
   53900   0.96197893   -9401.9161    158.07443    295.57429 
   53910   0.96204212   -9401.5285    195.13911    299.02763 
   53920   0.96186383   -9400.9661    168.07048    300.40515 
   53930   0.96149213   -9400.5492    15.599784    301.35457 
   53940   0.96108338   -9399.9378   -97.555011    299.95168 
   53950   0.96077427   -9399.5803   -147.04335    307.19507 
   53960    0.9605773   -9399.3492    221.68514    297.58122 
   53970   0.96015644   -9399.5823     255.8069     290.9503 
   53980   0.95944526   -9399.5815   -60.883992    298.26027 
   53990   0.95874038   -9399.1908   -87.653559    298.08287 
   54000   0.95810767   -9398.8656    21.178795    291.79343 
   54010   0.95745235   -9398.5022   -55.481032    292.13916 
   54020   0.95685128   -9397.7096   -243.62939    293.42358 
   54030   0.95653201   -9396.7666   -449.28296    300.79756 
   54040   0.95669482   -9395.6241   -259.77172    298.95131 
   54050   0.95719744   -9394.8686   -131.39008    299.24671 
   54060   0.95787951   -9394.3695   -58.254425    301.70754 
   54070   0.95864544   -9393.7757    117.70263    298.98147 
   54080   0.95931267   -9393.5429    190.05168    299.86132 
   54090   0.95977309   -9393.1362    229.14346    299.18309 
   54100   0.95998203   -9392.9374     192.8115    297.95098 
   54110   0.95996817    -9392.543    172.92764    287.92405 
   54120   0.95977678   -9392.0778   -53.092202    292.00719 
   54130   0.95959843   -9391.1604   -25.882738    291.69602 
   54140   0.95946369   -9390.0687   -98.045954    294.61393 
   54150   0.95943301   -9388.7688   -131.28735     295.8247 
   54160   0.95956414   -9387.3149   -164.72111    297.31074 
   54170   0.95991109   -9386.0663   -309.21342    307.78352 
   54180   0.96060945   -9384.7905   -149.72436    305.13062 
   54190   0.96152729   -9383.8487    61.754632    299.95006 
   54200   0.96242438   -9382.9944    131.12854    297.51157 
   54210   0.96322419   -9382.3078   -25.790476    306.76961 
   54220   0.96404036   -9381.6894    127.51136     306.9827 
   54230    0.9647277   -9381.4252    390.43228    301.80433 
   54240   0.96498589   -9381.6133    451.97134    302.63389 
   54250   0.96471108   -9381.7581    410.89088    298.08271 
   54260   0.96394418   -9382.1096     231.5548    300.51591 
   54270   0.96285513   -9382.2415    135.98538    297.40189 
   54280   0.96155969   -9382.3835    70.285854    292.70084 
   54290   0.96015171   -9382.3552   -112.97875    295.06603 
   54300   0.95882877    -9381.712   -293.91772    297.25648 
   54310   0.95781657   -9380.8738   -424.06427    300.98171 
   54320   0.95725722   -9380.0071   -322.74563    301.98914 
   54330   0.95707263   -9379.4039   -203.13948    298.23657 
   54340   0.95714765   -9378.7478   -229.35766    297.76826 
   54350   0.95750326   -9378.2341   -255.09329     302.0168 
   54360   0.95815873   -9377.7899   -88.666851    300.09039 
   54370   0.95895385   -9377.4975    65.671983    298.51624 
   54380   0.95971287   -9377.1677     95.70041    296.43549 
   54390    0.9603962   -9376.7802   -35.866365    301.64148 
   54400   0.96111617   -9376.5752    4.3825272     305.6334 
   54410   0.96184204    -9376.544    143.73202    308.07988 
   54420   0.96242019   -9376.6457    271.20285    306.93795 
   54430   0.96269545   -9377.2493    366.62875    300.50484 
   54440   0.96255893   -9377.9081    268.64608    297.54758 
   54450   0.96212461   -9378.6289   -117.22337    310.32467 
   54460   0.96176278   -9379.2599   -122.52714    308.51754 
   54470   0.96153004   -9380.5539    32.865347    304.62315 
   54480     0.961251   -9382.3178    176.23173     299.2149 
   54490   0.96078308   -9384.2565    91.974248    295.16303 
   54500   0.96019351   -9386.4317   -80.825686    302.92262 
   54510   0.95962994   -9388.3112    126.09463    293.25088 
   54520   0.95894652   -9390.5262   -13.049088    294.28857 
   54530   0.95825647   -9392.5672   -253.16532    297.65279 
   54540   0.95783805    -9394.577   -346.36803    296.29111 
   54550   0.95782231   -9396.4132   -349.07643    295.54647 
   54560   0.95822143   -9398.5272   -254.61417     294.9803 
   54570   0.95894575    -9400.792   -172.57376    297.60614 
   54580   0.95989354   -9403.0496   -3.7289899    295.11312 
   54590   0.96090499   -9405.5116   -33.985392    298.74509 
   54600   0.96197862   -9407.9394   -37.774134    301.84491 
   54610   0.96311316   -9410.6436    147.55357    300.12971 
   54620   0.96410622   -9413.5511    361.77956    296.11155 
   54630   0.96471859   -9416.6522    364.06988    294.81247 
   54640    0.9649111   -9419.4954    267.33456    292.93333 
   54650   0.96480173   -9422.3217    63.182303    296.21641 
   54660   0.96459774    -9424.782   -54.359104    293.72846 
   54670   0.96447574   -9427.1969   -267.85952    297.74615 
   54680   0.96465076   -9429.4735   -340.96151    301.03392 
   54690   0.96521205   -9431.9699   -138.98621    298.30133 
   54700    0.9659496    -9434.706    142.43144    297.99789 
   54710   0.96654868   -9437.4773    318.36445    295.28088 
   54720   0.96678172   -9440.3475    438.79942    292.45794 
   54730   0.96651003   -9443.1771    401.89776    290.23165 
   54740   0.96577542   -9445.9083    87.571187    292.76942 
   54750   0.96490475   -9447.9505   -170.58453    294.20245 
   54760   0.96419345   -9449.6086   -205.94885    292.86487 
   54770   0.96370841   -9451.3162   -218.86904    295.40842 
   54780   0.96346417   -9452.9093    -176.8018    297.21961 
   54790   0.96343184   -9454.5812    -130.7768    297.63415 
   54800   0.96354956    -9456.345  -0.69791799    294.03228 
   54810   0.96366816   -9457.8883    208.31083    285.46655 
   54820   0.96356079    -9459.397    234.27316     286.7206 
   54830   0.96316321   -9460.7725    178.99897    290.09385 
   54840   0.96255514   -9461.6524   -52.281853    291.90789 
   54850   0.96199448   -9462.0124   -292.47223     295.6542 
   54860   0.96173935   -9462.3536   -253.78303     295.7808 
   54870   0.96176519   -9462.5918   -43.208488    291.46185 
   54880    0.9618547   -9462.8949    74.341535    289.99736 
   54890   0.96187125   -9463.0086    27.661587    295.09991 
   54900   0.96183159   -9463.0365    114.57073     293.1329 
   54910   0.96167031   -9463.1339    96.954429     293.2407 
   54920   0.96139718   -9462.7544    -37.37092    296.57731 
   54930   0.96114891   -9462.2196    -65.56186     293.3951 
   54940    0.9609931   -9461.7047   -197.13436    294.48247 
   54950   0.96106661   -9460.8345   -315.32976    302.67635 
   54960   0.96147991   -9459.9074   -42.748042    295.21599 
   54970   0.96197985   -9459.4311    120.54168    297.07982 
   54980   0.96235468   -9458.8557    154.31259    297.08741 
   54990   0.96257385   -9458.1725    50.765847    297.16274 
   55000   0.96272705   -9457.2992    47.185165     294.9964 
   55010   0.96283656   -9456.2975    44.878147    290.60815 
   55020   0.96292062    -9455.287   -142.08403    298.41702 
   55030   0.96314186   -9453.8504   -93.423913    298.19021 
   55040   0.96349231   -9452.6861   -73.631891    301.32655 
   55050   0.96391365   -9451.3452    156.18793    293.47208 
   55060   0.96420057   -9449.9548    162.19674    289.62445 
   55070   0.96431329   -9448.2315    14.517011    296.12751 
   55080   0.96438566   -9446.1428    42.774935    301.40339 
   55090   0.96440011   -9444.0762    122.14869    302.70971 
   55100   0.96427362   -9442.1997    165.21186    303.00633 
   55110     0.963926   -9440.4226    371.20806    292.43826 
   55120   0.96315835    -9438.719    276.85224    292.85625 
   55130   0.96204018   -9436.6502   -34.456559    300.20054 
   55140   0.96089936   -9433.8313   -140.27113    294.55408 
   55150   0.95990611   -9430.9364   -249.70077    294.31696 
   55160   0.95918527   -9427.4796   -374.16898     298.8463 
   55170   0.95888669   -9423.7663   -402.55209    301.50808 
   55180   0.95904158   -9420.0051   -201.65485    300.84267 
   55190   0.95942525   -9416.4807    179.79605    295.00459 
   55200   0.95963705   -9413.0581    283.72124    295.31192 
   55210   0.95953092   -9409.3873    179.74992    291.58487 
   55220   0.95923745   -9405.3825   -153.19206    293.83334 
   55230   0.95910648   -9400.7196   -383.66957    299.16202 
   55240   0.95940867   -9396.0274    -348.8902    303.54786 
   55250   0.96011299   -9391.5672   -50.713667    300.19294 
   55260   0.96091058   -9387.2601    228.79131     297.1134 
   55270   0.96147124   -9383.1461    352.43996    297.75182 
   55280   0.96163917   -9379.0507    313.51647    294.45784 
   55290   0.96145822   -9375.0025    51.386067    298.66638 
   55300    0.9612003   -9370.7396   -177.66159    303.99903 
   55310   0.96113131   -9366.6056   -236.41584     307.0621 
   55320   0.96130863   -9362.7047    44.051844    301.76715 
   55330    0.9614618   -9359.6687    209.93448    305.11302 
   55340   0.96136337   -9356.9499    309.72192    302.16713 
   55350   0.96091012   -9354.6342    242.29144    294.21702 
   55360   0.96016735   -9352.2307    -17.86803    292.28982 
   55370   0.95943124   -9349.5369   -383.49441    303.07384 
   55380   0.95909473   -9346.6053   -468.84106    308.06044 
   55390   0.95930323   -9344.2039   -384.43218    305.96059 
   55400   0.96000672   -9342.3428   -378.06645    308.61997 
   55410   0.96117698    -9340.975   -180.81615    307.42372 
   55420   0.96261131    -9340.399    58.297389    309.49365 
   55430   0.96399839   -9339.8591    430.77005    302.85141 
   55440   0.96494011   -9339.7614    533.13156    303.27572 
   55450   0.96529466    -9339.772    301.03092     307.7814 
   55460   0.96529876   -9339.8781    19.535639    309.00812 
   55470   0.96525051   -9340.3229    7.7207212    305.81762 
   55480   0.96518856    -9340.886    64.338517    304.85373 
   55490   0.96504663   -9341.8449    109.21546    306.00096 
   55500    0.9647592   -9343.0327    195.91129    305.19764 
   55510   0.96422225   -9344.3631    264.51625    300.02011 
   55520   0.96339165   -9345.8477   -11.689737    304.03146 
   55530   0.96253753   -9347.2112   -259.86758    310.75044 
   55540   0.96192457   -9348.7131   -90.350881    306.87168 
   55550   0.96140531   -9350.5973    103.15802    302.83706 
   55560   0.96076134   -9352.6841    136.71095     301.4277 
   55570   0.95993891   -9354.7944    94.994924     297.1697 
   55580   0.95901031   -9356.8562   -206.05877    301.90303 
   55590   0.95828669   -9358.5403   -406.68378    303.10524 
   55600   0.95801962   -9360.1692   -442.54885    305.09225 
   55610   0.95825314   -9362.0784   -236.36726    306.10682 
   55620   0.95875597   -9364.3333    173.19696    303.73368 
   55630   0.95907452   -9366.8369    486.30462    294.72071 
   55640   0.95887657   -9369.2763    261.40424    292.23314 
   55650   0.95839337   -9371.4622   -306.73596    301.96456 
   55660   0.95820773   -9372.9127   -403.65045     300.7747 
   55670     0.958491   -9374.7367   -288.90232    304.75279 
   55680   0.95911681    -9376.606    -22.34271    300.16688 
   55690   0.95981652   -9378.8247    86.830135     301.5672 
   55700   0.96042907   -9380.9624    143.39279    303.02533 
   55710   0.96090113   -9383.3034    89.011104    303.77206 
   55720   0.96126346   -9385.4166    209.77397    295.93741 
   55730   0.96141427   -9387.5847    139.88238    298.40524 
   55740    0.9613988   -9389.5577    9.1836794    298.99079 
   55750   0.96138436   -9391.4919    -178.1153    302.25515 
   55760   0.96155851   -9393.2253   -120.12315    301.77464 
   55770   0.96186524   -9394.9735    132.26244    298.39558 
   55780   0.96204462   -9397.0072    168.94541    303.60556 
   55790   0.96201596   -9398.7899    201.69685    297.20888 
   55800   0.96177488   -9400.6392   -3.3396157    300.31693 
   55810   0.96151225   -9402.1803   -124.86204    300.55867 
   55820   0.96139013   -9403.5703   -187.24528    300.82498 
   55830   0.96149058   -9405.1291   -243.70868    305.53614 
   55840   0.96187391   -9406.7103   -141.79679    305.35278 
   55850    0.9624336     -9408.54    72.874804    302.74253 
   55860   0.96292424   -9410.3961    277.57389    295.73001 
   55870   0.96313734   -9412.3324    102.27036    299.90819 
   55880   0.96321109   -9413.7159    46.877538    295.75524 
   55890   0.96325392   -9415.1378   -90.153507    298.66121 
   55900    0.9633923   -9416.4076   -167.08517    305.07617 
   55910   0.96371424   -9417.8516    -50.68592    304.60849 
   55920   0.96410309   -9419.3561    159.20547    299.09017 
   55930   0.96434486   -9420.8044    176.89691    294.30645 
   55940   0.96440973   -9422.1508    -80.11711    304.52232 
   55950   0.96453494   -9423.4109   -113.59626    306.31164 
   55960   0.96479289   -9424.8385   -32.384137    303.23302 
   55970    0.9651031   -9426.3666    49.268622    297.92872 
   55980    0.9653903   -9428.0409   -38.901422    301.40076 
   55990   0.96571159   -9429.5563    28.316007    298.08123 
   56000   0.96603278   -9430.9802   -34.218537    299.48374 
   56010    0.9663974   -9432.5855   -59.532115    303.40923 
   56020   0.96683073    -9433.826    45.245956    301.15062 
   56030   0.96723802   -9435.4185     41.39486    302.45822 
   56040   0.96761373   -9436.9577   -2.7914164    304.28994 
   56050   0.96798082   -9438.8295    155.70213    303.41781 
   56060   0.96816053   -9440.5571    419.76089    294.97098 
   56070   0.96789234   -9442.6002    206.76754    301.09913 
   56080   0.96734626   -9444.4239    3.6610905    304.49382 
   56090   0.96676807   -9446.1603   -80.332934    303.09462 
   56100   0.96627355   -9447.8713   -120.50853    300.03976 
   56110   0.96591368   -9449.6088   -143.42491    300.84145 
   56120   0.96569444   -9451.3139    3.3379187    298.81994 
   56130   0.96545196   -9453.1312    249.12405    294.64637 
   56140   0.96491763   -9454.9944    304.22798    294.36312 
   56150   0.96401371   -9456.6982    167.14442      290.361 
   56160   0.96290809   -9457.9828   -201.30705    295.21973 
   56170   0.96199246   -9458.9248   -432.31409    302.71977 
   56180   0.96152828   -9459.5677   -283.39124    298.27947 
   56190    0.9614191   -9460.6523   -263.51113    303.67564 
   56200   0.96160648   -9461.6489    -124.4746    302.67526 
   56210   0.96195356   -9463.0355    31.486218    299.08527 
   56220   0.96228104   -9464.3885    138.82694    295.14605 
   56230   0.96246924   -9465.7444     127.3426    296.10075 
   56240    0.9625107     -9467.15    58.731437     300.1019 
   56250   0.96246806   -9468.2041    99.951157    297.68874 
   56260   0.96229821    -9469.483    214.55153    292.15725 
   56270    0.9618729   -9470.6174    241.61184    289.38291 
   56280   0.96115819   -9471.5815    67.167888    288.79599 
   56290   0.96035419   -9471.9904   -268.69938    297.06685 
   56300   0.95981973   -9472.0006   -385.72243    300.40588 
   56310   0.95972034   -9472.1148   -323.03468    301.90302 
   56320   0.95998399   -9472.3545   -41.376051    296.08908 
   56330   0.96032971   -9472.8541    103.79939     293.0618 
   56340   0.96057902   -9473.3625    83.109889      296.972 
   56350   0.96071919     -9473.64    160.80925    293.78687 
   56360   0.96069052    -9473.998    93.475219    296.82476 
   56370   0.96053253   -9474.3037    112.95462    293.20783 
   56380   0.96024491   -9474.3267    56.450937    293.28443 
   56390    0.9598823   -9474.3699   -59.001922    295.37408 
   56400   0.95956336   -9474.0926   -46.657263    290.34749 
   56410   0.95929332   -9473.6849   -7.6648011    287.65273 
   56420   0.95903274   -9473.0499   -41.050376    288.24181 
   56430   0.95882487   -9471.8024    -180.3599    291.84627 
   56440    0.9588152   -9470.3783   -227.15702    298.40276 
   56450   0.95904535   -9468.8492    27.716908    292.60437 
   56460   0.95928055   -9467.4486    104.74459    290.57444 
   56470   0.95940534   -9465.9363    79.853851     294.0095 
   56480   0.95942292   -9463.9644    142.39338    289.96447 
   56490   0.95930331   -9461.9669   -32.337872    293.30328 
   56500   0.95919253   -9459.1944   -57.837243    292.46278 
   56510   0.95916177   -9456.3283   -165.22375    298.43732 
   56520   0.95931123   -9453.0729   -174.11954    295.12505 
   56530   0.95969578   -9449.7288    -230.9548    297.42902 
   56540   0.96035673   -9446.2432   -147.13831    301.95325 
   56550   0.96120087   -9442.7093    136.85727     300.2253 
   56560   0.96191244   -9439.2829    429.17156    294.20886 
   56570   0.96217561   -9435.6656    369.10061    291.01442 
   56580   0.96202621   -9431.6697    70.237332    295.97871 
   56590   0.96176519   -9427.0839   -89.522998    299.99573 
   56600   0.96159019    -9422.231   -117.02336    301.23247 
   56610   0.96153699   -9417.3448   -1.3379034    299.44305 
   56620   0.96147315    -9412.355    220.86155    293.49454 
   56630   0.96116885   -9407.4364    227.33269    293.22835 
   56640   0.96058161   -9402.3555    102.00285    301.09228 
   56650   0.95981727   -9397.0121    155.92742    296.94051 
   56660   0.95885925   -9391.9487    92.763211    290.09253 
   56670   0.95777738   -9386.7459   -141.06822    289.33768 
   56680   0.95683799   -9381.0381   -468.63784    295.84985 
   56690    0.9564083   -9375.0145   -568.45658    296.91228 
   56700   0.95663836   -9369.5901   -433.17534     293.0786 
   56710   0.95741221    -9364.868   -316.08284    298.76261 
   56720   0.95857754   -9360.4327    -67.92292    299.64723 
   56730   0.95987682   -9356.7119    111.58482    299.99194 
   56740   0.96108572   -9353.6095    257.40742    302.97479 
   56750   0.96200498   -9350.8229     497.9553     299.2796 
   56760   0.96237242   -9348.9238    545.56612    300.96117 
   56770    0.9620853    -9347.336    552.11696    293.74553 
   56780   0.96115972   -9346.2788    243.77194     294.5466 
   56790   0.95991213   -9344.9031    -112.5589    301.76468 
   56800   0.95874234   -9343.3711   -275.41826    304.09909 
   56810   0.95787806    -9341.946   -418.17388    302.70881 
   56820   0.95749825   -9340.7398   -532.67025    305.56172 
   56830    0.9577175   -9339.7972   -377.99447    303.26928 
   56840    0.9584156   -9339.4777   -288.49174    307.82395 
   56850   0.95946201   -9339.4226   -68.691843     306.6087 
   56860   0.96063934   -9339.7727    74.591896    304.92104 
   56870   0.96176932   -9340.3619    118.95361    307.03129 
   56880   0.96277938   -9341.3834     207.5877    310.47783 
   56890   0.96354928   -9342.6016     417.7644    304.63995 
   56900   0.96386611   -9344.0876    376.98836    304.81378 
   56910   0.96374666   -9345.8368    174.21516    307.92901 
   56920   0.96339266   -9347.4533     124.8578    304.10887 
   56930    0.9628811   -9349.4154     77.23541    307.69381 
   56940   0.96224404   -9351.5026    130.76193    303.94426 
   56950   0.96143564   -9353.8078    221.35177    293.76595 
   56960   0.96038712   -9356.0686   -34.128613    298.53974 
   56970   0.95933409    -9357.888   -266.10952     303.6431 
   56980    0.9585619   -9359.5744   -343.50026    300.71129 
   56990   0.95818944   -9361.3897   -421.53089     303.2022 
   57000   0.95828828   -9363.1899   -240.65275    299.95387 
   57010   0.95868412   -9365.3993   -16.887555    297.85258 
   57020   0.95911185   -9367.5651    193.25739    291.41473 
   57030   0.95936091   -9369.7489    63.583416    295.55732 
   57040   0.95952772   -9371.6714   -20.341713      299.808 
   57050   0.95970885    -9373.609     9.059351    300.77839 
   57060   0.95988527   -9375.5943    23.668615    298.98055 
   57070   0.96004286   -9377.7305     23.64177    300.16017 
   57080   0.96017487   -9379.8084    74.429271    300.07456 
   57090   0.96022466   -9382.1305    91.041424    302.47166 
   57100   0.96015574   -9384.5431    132.51213    302.59351 
   57110   0.95992292   -9387.0653    147.54744    297.29026 
   57120   0.95953564   -9389.6183   -91.329549    300.64227 
   57130   0.95922182   -9391.9549    -161.0315    299.84984 
   57140   0.95908456   -9394.4496    -83.88755    298.74571 
   57150   0.95904257   -9396.9978    6.7687992    298.91933 
   57160   0.95900272   -9399.4454   -11.168229    293.65619 
   57170   0.95900965   -9401.7944   -277.65842    297.07923 
   57180   0.95933018   -9403.7676   -372.02373    299.75255 
   57190   0.96009743   -9406.0768   -272.77685    301.23477 
   57200   0.96121169   -9408.6936   -64.130377     302.5476 
   57210    0.9624323   -9411.5795    244.75986     300.4052 
   57220    0.9634115   -9414.5007    427.96084    298.22706 
   57230   0.96392904   -9417.4098    373.80424    294.14188 
   57240   0.96403536    -9420.143    124.09117    294.73131 
   57250   0.96398911   -9422.5241   -105.92424    299.27731 
   57260   0.96404082   -9424.8477    -88.15243     298.4245 
   57270   0.96418316   -9426.9819    139.77297    290.72095 
   57280   0.96420164   -9429.4012    77.375472    297.24696 
   57290   0.96409908   -9431.6861    141.92792    295.60295 
   57300   0.96384277   -9433.8646    77.951484    292.49356 
   57310   0.96350321   -9435.9187   -186.62158    298.57242 
   57320   0.96335653   -9437.4495   -299.23058     298.0012 
   57330   0.96355698   -9439.0167   -262.79785    297.43083 
   57340   0.96407581   -9440.8946   -140.02571    299.12509 
   57350   0.96477706   -9442.7548    37.152853    296.61612 
   57360   0.96546752   -9444.6892    162.05885    292.65137 
   57370   0.96599792    -9446.381    207.01148     290.9145 
   57380   0.96630629   -9448.1874    122.50062    299.67384 
   57390   0.96644684   -9449.7236    196.75403    297.61166 
   57400   0.96637843    -9451.607    98.622565     299.9514 
   57410   0.96617576   -9453.2576     73.62186    296.10387 
   57420    0.9658805   -9454.6906    56.544882    294.18153 
   57430   0.96551173   -9456.2636   -20.443793     299.5439 
   57440   0.96514601   -9457.7536   -45.026211    301.63333 
   57450   0.96481066   -9459.4682    25.055043    301.48394 
   57460   0.96442318   -9461.2344    177.02907    294.71825 
   57470   0.96384003   -9463.2956    72.421103    299.07555 
   57480   0.96314167   -9465.0704   -42.883703    296.87013 
   57490   0.96250914   -9466.7094   -399.17085    301.39788 
   57500   0.96230001   -9468.0973   -434.80806    300.33237 
   57510    0.9625812    -9469.739   -123.09804    293.17501 
   57520   0.96304215   -9471.7896    61.654968    294.97369 
   57530   0.96343734   -9473.6804    237.23133    291.42676 
   57540   0.96358848   -9475.3439     168.7032    290.71657 
   57550   0.96356088   -9476.9803   -81.725947     295.2318 
   57560   0.96361283   -9478.3863   -208.66445    297.41776 
   57570   0.96390341   -9479.5213   -161.44069    294.56644 
   57580   0.96440696    -9480.946    -122.9037    296.98769 
   57590   0.96505949   -9482.3704    34.366756     298.0434 
   57600   0.96567463    -9483.989    326.99989    293.96121 
   57610   0.96592951   -9485.7212    483.70489    288.55905 
   57620   0.96563723   -9487.4831    358.44137    288.12385 
   57630   0.96491409   -9489.1732    86.719937    295.61094 
   57640   0.96403693   -9490.5318   -34.124474    299.09525 
   57650   0.96316662   -9491.5071   -23.837375     288.2816 
   57660   0.96234312   -9492.5767   -281.34408    292.37862 
   57670   0.96180024   -9493.1362    -312.9218    294.43346 
   57680   0.96161204   -9493.7904   -225.97928    290.38872 
   57690   0.96170329   -9494.3909   -219.75221    294.69632 
   57700   0.96203713   -9494.8844   -30.438689    291.16394 
   57710   0.96244658   -9495.4334    19.966496    290.98126 
   57720   0.96282585   -9495.9054     172.6225     286.4785 
   57730   0.96301404   -9496.2635    299.93418    283.83093 
   57740   0.96286529   -9496.3959    209.52656    290.40939 
   57750   0.96245135    -9495.835    93.291949    293.51366 
   57760   0.96191619   -9495.1796   -35.114553    296.94824 
   57770   0.96138816   -9494.1121   -8.3568823    290.57047 
   57780   0.96089008    -9493.023   -206.30712     294.4005 
   57790   0.96060017   -9491.2273   -264.62705    298.01875 
   57800   0.96059985   -9489.3639   -110.54292    295.20505 
   57810   0.96073814   -9487.3528    14.729234    294.54014 
   57820   0.96086324   -9485.2891     135.4916    291.25796 
   57830   0.96084505   -9482.8905    136.92317    290.23633 
   57840   0.96066818   -9480.0143      49.9451    290.70059 
   57850   0.96042108     -9476.54   -2.9453964    291.24321 
   57860   0.96016505   -9472.7459   -44.612731    292.91087 
   57870   0.95995691   -9468.5029   -66.982781    294.38001 
   57880   0.95980705   -9463.9595    62.672124    289.81133 
   57890    0.9595881   -9459.3574    118.16139    290.78358 
   57900   0.95920922   -9454.5598    183.42788    290.34281 
   57910   0.95861534   -9449.5149      59.3715    290.12171 
   57920   0.95795254   -9444.0742   -308.67128    302.10707 
   57930   0.95759355   -9438.1023   -331.91564    300.17158 
   57940   0.95762244   -9432.6325   -205.16334      293.822 
   57950   0.95790191    -9427.463   -47.806063    295.27901 
   57960   0.95824513   -9422.5144     107.7701     297.1201 
   57970   0.95849149   -9417.9561    77.668787    301.53642 
   57980   0.95864705   -9413.4541    62.356435    303.20039 
   57990   0.95872678   -9409.2895    104.06717    298.69454 
   58000   0.95871989    -9405.631   -96.671677    303.60873 
   58010   0.95881073    -9401.942   -185.63184    305.88567 
   58020   0.95911483   -9398.6812   -100.23159    304.50257 
   58030    0.9595485   -9396.0634    40.892532     305.6857 
   58040   0.95995833   -9393.5317     109.9997    300.36761 
   58050   0.96030246     -9391.49   -203.69198    308.06267 
   58060   0.96084659   -9389.3887   -61.761284     305.7533 
   58070   0.96147807    -9387.886     296.2804    302.42119 
   58080   0.96178435   -9386.9179    510.40106     304.4243 
   58090   0.96149741   -9386.3597    513.91031    301.88523 
   58100   0.96060073    -9386.052     269.8011    302.61152 
   58110   0.95932112   -9385.7162    148.69826    299.41138 
   58120   0.95782077   -9385.4945     30.70185     296.3117 
   58130   0.95624968   -9385.0501   -252.81529    299.19343 
   58140   0.95493468   -9384.0869   -574.86057    308.33696 
   58150   0.95423389   -9383.0229   -564.86574    306.45791 
   58160   0.95418948   -9382.2383   -388.16794    300.41736 
   58170   0.95462519   -9382.1323   -290.46261    306.01339 
   58180   0.95540172   -9382.2181   -23.961167    302.83131 
   58190   0.95624509   -9382.4559    226.03398    294.79178 
   58200    0.9568701   -9382.8867     235.6081    298.45674 
   58210   0.95724242   -9383.4302    73.081568    306.05569 
   58220   0.95751703   -9383.9041    60.338622    299.51139 
   58230   0.95774413   -9384.4364   0.94573832    300.84103 
   58240   0.95796493    -9385.051    2.5677975    303.98233 
   58250   0.95817621   -9385.6996    117.38228    295.13637 
   58260   0.95829282   -9386.5331   -10.330841    295.91905 
   58270   0.95841074   -9387.1604   -68.030299    296.28769 
   58280   0.95861427   -9387.7217   -90.565897    299.27433 
   58290   0.95891724   -9388.3302   0.54197835    297.27203 
   58300   0.95924407   -9389.1158    37.885773    294.65287 
   58310   0.95954416   -9389.8218   0.57643481    296.44334 
   58320   0.95985984    -9390.355   -113.57634    298.92303 
   58330   0.96031871   -9391.0259   -182.40183    302.69923 
   58340    0.9609896   -9391.6888   -24.058349    299.15328 
   58350   0.96172308   -9392.5352    102.18029    299.31328 
   58360   0.96235825   -9393.5938      182.271    303.40533 
   58370    0.9627863   -9394.9568    269.75017    302.41642 
   58380   0.96291302   -9396.5406     263.2734    301.69584 
   58390   0.96272976   -9398.1411    221.87224    301.67679 
   58400   0.96226132   -9400.0885    225.05353    303.38839 
   58410   0.96150077    -9402.197    270.47819    293.72244 
   58420    0.9604295   -9404.3879    18.359565     290.7222 
   58430   0.95931436   -9405.9167   -356.22615    294.66635 
   58440    0.9585691   -9407.0699   -483.72649    297.26168 
   58450   0.95835383   -9408.1551   -285.33391    292.90816 
   58460   0.95849018   -9409.4719    -133.1982    292.97625 
   58470   0.95878739     -9410.87    8.0880952    295.55859 
   58480   0.95907972   -9412.4353     204.7378    291.69559 
   58490   0.95915128   -9414.1136    243.81892     292.8238 
   58500   0.95892904    -9415.596    223.83347    297.42898 
   58510   0.95841917   -9417.0672    249.78251    291.91929 
   58520   0.95761994   -9418.4132    82.981123     286.9249 
   58530   0.95670712   -9419.4355   -183.75824    290.33949 
   58540   0.95597746   -9419.8279   -389.51344    295.88694 
   58550   0.95567623   -9420.0941   -430.19752    299.32058 
   58560   0.95587616   -9420.4538   -340.60884    295.82352 
   58570   0.95651089   -9421.2012   -328.12931    300.49493 
   58580   0.95752258   -9422.0414    9.7537462    297.95247 
   58590    0.9585651    -9423.032    321.67731    292.37893 
   58600   0.95929257    -9424.192    259.76602    296.46302 
   58610   0.95971483   -9425.0783    209.01115    295.11893 
   58620   0.95991417   -9426.0944    37.802303    299.34126 
   58630   0.96005658     -9426.78     -27.4142    298.68161 
   58640   0.96024279    -9427.732   -100.78374    303.98803 
   58650   0.96051843   -9428.8855    121.43546     301.9106 
   58660   0.96065902   -9430.3991    369.84207    293.62608 
   58670   0.96039454   -9432.2604    291.66558    294.85241 
   58680   0.95976162   -9433.9009    188.34838    293.72148 
   58690   0.95888942   -9435.6037   -3.4571749    298.12769 
   58700   0.95798794   -9436.9821   -176.11948    298.36625 
   58710   0.95727902   -9438.3125   -338.41133     297.5486 
   58720   0.95693797   -9439.6138   -270.77403    294.18714 
   58730   0.95690752   -9441.1208   -83.407653     293.8284 
   58740   0.95696569   -9442.6895      164.159    286.47008 
   58750    0.9568681   -9444.2166    51.571158    289.05621 
   58760   0.95671122   -9445.4308    -198.8747     294.7179 
   58770   0.95676704   -9446.1858   -234.18224     291.5987 
   58780   0.95712366   -9447.0339   -309.28284    297.90169 
   58790   0.95784358   -9448.0665   -232.68524    302.49872 
   58800   0.95885001   -9449.3994    52.354093    295.98685 
   58810   0.95984487   -9450.6643    223.93608    290.15767 
   58820   0.96062388   -9452.1214    171.59065     293.3407 
   58830    0.9612085   -9453.2558      140.704    296.58051 
   58840   0.96162768   -9454.4951    231.67798    294.93782 
   58850   0.96179336   -9455.8932    233.95022    297.14406 
   58860   0.96167707   -9457.3172    210.82494    298.15668 
   58870   0.96130223   -9458.5176    213.18562     288.7725 
   58880   0.96069598   -9459.7816   -66.634674    294.33027 
   58890   0.96011313   -9460.4851   -129.70622    294.82449 
   58900   0.95967798   -9461.0877   -212.64211    295.09409 
   58910   0.95948764   -9461.6896   -301.25646    297.86496 
   58920   0.95963312   -9462.1087   -150.59308    291.40191 
   58930   0.96000029    -9462.653   -194.59103    293.06694 
   58940   0.96060495   -9463.0121   -195.41296    295.10088 
   58950   0.96143987   -9463.4987    84.387348    292.65724 
   58960   0.96218889   -9463.5886    509.53858    278.52168 
   58970   0.96242976   -9463.9016      271.569    284.55632 
   58980   0.96235788   -9463.3416   -206.06572    298.86253 
   58990   0.96248503   -9462.2173   -323.54944    299.61886 
   59000   0.96299195   -9461.2345   -205.91123    296.55239 
   59010   0.96375999   -9460.3913   -10.453107    296.64343 
   59020   0.96456954   -9459.6812    156.62521    299.63984 
   59030    0.9652081   -9458.9345    342.51612    297.91426 
   59040   0.96547072   -9458.3563    374.03364    295.27722 
   59050   0.96531862   -9457.7958    163.18393    296.54854 
   59060   0.96495643   -9456.7497     10.86883    294.05622 
   59070   0.96456819    -9455.487   -82.195359    298.97687 
   59080   0.96423164   -9453.9552    73.987539    294.01852 
   59090   0.96382443   -9452.6025    26.821539     293.1842 
   59100   0.96338091   -9451.0078   -173.62125    298.24619 
   59110   0.96311589   -9448.8652    -211.7023    294.47041 
   59120   0.96311031   -9446.8268   -267.74756    299.24879 
   59130   0.96338535   -9444.4893    33.124971    294.07255 
   59140   0.96365183   -9442.4336    226.26192    295.31651 
   59150   0.96364844   -9440.4161    338.65637    300.59452 
   59160   0.96321566   -9438.3833    579.09376    288.01967 
   59170   0.96213697   -9436.7291    268.88253    291.86518 
   59180   0.96067909   -9434.1785    -8.043192    292.67997 
   59190   0.95917787   -9431.0225   -157.36385    288.77816 
   59200    0.9578302   -9427.3486   -313.97945    291.23215 
   59210   0.95681291   -9423.1577   -381.91619    293.73304 
   59220   0.95622811   -9418.7135   -427.37599    295.44583 
   59230   0.95614274   -9413.9848   -440.83449      299.453 
   59240   0.95656853   -9409.4994   -264.02138    293.62372 
   59250   0.95734702   -9405.2332   -163.06457    294.56152 
   59260   0.95832768   -9400.9215    57.998423    295.39071 
   59270    0.9592771   -9396.7118    195.43126    298.32267 
   59280   0.96002422   -9392.4953    258.57981     299.6738 
   59290   0.96047552     -9388.43    353.57575    294.04865 
   59300   0.96054117   -9384.6781    231.46436    294.41424 
   59310   0.96032063   -9380.8256    147.93929    292.51199 
   59320    0.9599085   -9377.0311    102.59558     293.3244 
   59330   0.95937534   -9373.1782   -100.26572    301.70666 
   59340   0.95890909    -9369.301   -30.145038    295.60923 
   59350   0.95849807    -9365.851   -114.72568    297.24585 
   59360   0.95822622   -9362.3086   -336.95047     304.5942 
   59370   0.95831907   -9359.0333   -245.53731    304.40987 
   59380   0.95868143   -9356.0777    115.32349    297.38197 
   59390   0.95895489   -9353.9277    153.32164    303.66522 
   59400    0.9590411   -9351.8613    146.48824    304.15092 
   59410   0.95896637   -9350.1307    74.257972    299.57089 
   59420   0.95881554   -9348.5827    -110.8064    305.41413 
   59430   0.95874996   -9346.8863    37.423485    300.52974 
   59440   0.95866412   -9345.7772    39.706795    304.54873 
   59450   0.95850892   -9344.8492     123.1399    302.38663 
   59460   0.95820848   -9344.1314    180.81894    298.53997 
   59470   0.95768882   -9343.6692    128.41423    300.50467 
   59480   0.95699499   -9343.1166    46.450999    299.74786 
   59490   0.95622945   -9342.5766   -92.806529    299.62545 
   59500   0.95555141   -9341.8905   -233.03915    301.41832 
   59510   0.95512399   -9341.3046   -267.02638    298.34596 
   59520   0.95501261   -9340.6766   -285.82689    297.68498 
   59530   0.95525025   -9340.0062    -327.3231    297.58412 
   59540   0.95589706   -9339.7242   -365.92664    303.26325 
   59550   0.95696728   -9339.3744   -62.229034    300.43236 
   59560    0.9581585   -9339.3819    205.07894    302.84822 
   59570   0.95914786   -9339.6005    336.60396    303.61325 
   59580    0.9597637   -9339.8719     419.0097    298.88854 
   59590   0.95991017   -9340.4298    344.78483    300.32121 
   59600   0.95963933   -9341.0388    267.28032    296.63313 
   59610   0.95905999   -9341.4516    12.865294    299.48964 
   59620   0.95843723   -9341.7799   -207.44103    305.14664 
   59630    0.9580189   -9342.0253   -184.76285    302.03913 
   59640   0.95781816   -9342.3222   -137.50989    297.21507 
   59650   0.95779125   -9342.7017   -161.64829    299.44878 
   59660   0.95794813   -9343.1626    -115.0009    301.91772 
   59670   0.95823982   -9343.8228   -14.769599    303.08103 
   59680   0.95857178   -9344.7231   -29.626183    306.00546 
   59690   0.95895311   -9345.9949   -85.921565    311.20507 
   59700   0.95940956   -9347.5997    206.64254    305.79144 
   59710   0.95964312   -9349.7321    444.50075    303.18164 
   59720   0.95936447   -9352.1715    457.43002    298.93988 
   59730   0.95855425   -9354.7831    180.54043    298.18459 
   59740   0.95751488   -9357.2928   -247.35699    307.32572 
   59750   0.95669495   -9359.3648   -304.81291    304.03702 
   59760   0.95621989   -9361.9486    -293.8021    304.23319 
   59770   0.95606525    -9364.598   -135.79454    299.70222 
   59780   0.95609605   -9367.5711   -110.13116    299.08898 
   59790   0.95626903   -9370.6027   -145.34555     297.9527 
   59800     0.956622   -9373.8828   -159.27916    300.22456 
   59810    0.9571642   -9377.2777   -57.857811    300.05068 
   59820   0.95779373   -9380.5391    66.181945    295.17414 
   59830   0.95838839   -9384.1235    18.118522    298.03648 
   59840   0.95896066   -9387.7758    84.586481    300.64517 
   59850   0.95944076   -9391.5252    241.18537    297.57376 
   59860   0.95965606   -9395.5716    269.94091    300.74529 
   59870   0.95954141   -9399.7089    311.11675    300.33979 
   59880   0.95905678   -9403.9178    249.90355    298.92314 
   59890    0.9582687    -9408.091    50.911798    298.52297 
   59900   0.95738895   -9411.9432   -130.22523    296.22094 
   59910   0.95663265   -9415.4971   -225.88456     293.0742 
   59920   0.95612628   -9418.6688    -269.9914    290.36758 
   59930   0.95594802    -9421.381   -381.87372    291.96031 
   59940   0.95622105   -9423.8903   -435.01451     294.0566 
   59950   0.95702627   -9426.3588   -384.24925    294.81162 
   59960   0.95831525   -9428.8251    -252.8627    296.33649 
   59970   0.95994751   -9431.2868   -77.095686    298.07242 
   59980   0.96171067   -9433.8013    168.43478    299.92876 
   59990   0.96330765   -9436.1682    482.84662    298.99788 
   60000   0.96436839   -9438.7101     680.1402    296.26007 
   60010    0.9646703   -9441.0454    532.19925    292.56535 
   60020   0.96435493   -9443.1137    178.22922    295.83476 
   60030    0.9637966   -9444.7884   -5.1863614    298.77259 
   60040   0.96320278   -9446.1027    73.633021    290.80839 
   60050   0.96255101   -9447.5495   -153.60877    298.20826 
   60060   0.96202172   -9448.2886   -110.03486     291.4893 
   60070    0.9616502   -9448.9196   -294.91251    296.11804 
   60080    0.9616121   -9449.4334   -457.01633    304.61205 
   60090   0.96208633   -9449.7564   -234.28971    299.42779 
   60100    0.9628653   -9450.5536   -24.386563    301.73172 
   60110   0.96369134   -9451.3924     186.9196    300.31527 
   60120   0.96432748   -9452.3807    280.89411    296.40712 
   60130   0.96466831   -9453.3302    149.54142    300.93511 
   60140   0.96481393   -9454.1214    187.45288     297.6036 
   60150   0.96474834   -9454.8947    196.16723    294.65489 
   60160   0.96445949   -9455.6728    43.463629     299.4968 
   60170   0.96408473   -9456.3157    60.839276    297.54806 
   60180    0.9636108   -9456.7766    220.94726    287.55408 
   60190   0.96289775   -9457.1428    49.184927      288.655 
   60200   0.96210772   -9457.1041   -215.30757    295.26737 
   60210   0.96153755   -9456.4661   -307.91109    295.54104 
   60220   0.96131237   -9455.8473   -282.85738    294.39804 
   60230   0.96142791   -9455.3222   -230.29852    297.28737 
   60240   0.96180175   -9454.7494    24.542286    288.56436 
   60250   0.96220393   -9454.3978   -36.494914    292.19812 
   60260   0.96264795   -9453.5866   -84.353829    296.21454 
   60270   0.96320006    -9452.781   -18.206835    297.78534 
   60280   0.96379296   -9452.3315     48.07826    304.72641 
   60290   0.96432289   -9451.7901    274.57888    298.26576 
   60300   0.96457683   -9451.6105    199.44928    300.46108 
   60310   0.96457699   -9451.3214     243.2491    296.06536 
   60320   0.96429361    -9451.108    241.49541    294.65579 
   60330   0.96372584   -9450.9719    52.697653    300.91999 
   60340   0.96304934   -9450.5553    26.685058    295.57881 
   60350   0.96233375   -9450.2061   -56.042939    291.85906 
   60360   0.96166327   -9449.5771   -153.96506    294.16149 
   60370    0.9611479    -9448.776   -179.64849    298.19252 
   60380   0.96081636     -9447.76   -65.799277    295.36752 
   60390   0.96056539   -9447.1159   -32.864251    298.06807 
   60400   0.96033302   -9446.3578    51.870141    294.80909 
   60410   0.96004809    -9445.488    5.5735565    294.08072 
   60420   0.95974384   -9444.6862   -54.488861    296.22265 
   60430   0.95949385   -9443.5929   -94.627544    297.04595 
   60440   0.95935799   -9442.4454   -196.86187    298.91237 
   60450   0.95945243   -9441.4716    -249.3538    300.56945 
   60460   0.95983347   -9440.3877   -102.34057     297.2433 
   60470    0.9603556   -9439.3974    84.639922    295.03038 
   60480   0.96080389   -9438.4831     161.9908     297.2179 
   60490   0.96106374   -9437.6146    237.73072    295.50217 
   60500   0.96105794   -9436.7276    164.33667    296.91912 
   60510   0.96086371     -9435.81   -51.005517    301.35888 
   60520   0.96070791   -9434.5514   -106.92589    296.87119 
   60530   0.96067871   -9433.3606   -66.762737    295.01303 
   60540    0.9607323   -9432.3606   -16.025847    302.87478 
   60550   0.96076988   -9431.1277    269.39473    294.76535 
   60560   0.96054496   -9430.2479    99.145466    296.25635 
   60570   0.96019489   -9429.0585   -175.41597    300.86929 
   60580   0.96000227   -9427.5483   -75.969776    294.23021 
   60590   0.95990916   -9426.4124   -25.848105    298.15279 
   60600   0.95982393   -9424.9359    109.35478    294.47127 
   60610   0.95963496   -9423.6356    47.050494    297.02442 
   60620   0.95938325   -9421.9307   -54.804148    298.87955 
   60630    0.9591815   -9420.2007   -70.785536    302.33401 
   60640   0.95903421   -9418.5325    86.896783    301.48636 
   60650   0.95878034   -9417.0611    241.91831     298.2838 
   60660   0.95823343   -9415.8192    335.38509    292.84301 
   60670   0.95728935   -9414.6145    186.45289    293.38876 
   60680   0.95610036   -9412.8422   -97.895029    298.63613 
   60690   0.95498415   -9410.4288   -279.08182    296.66817 
   60700   0.95419308   -9407.6984    -538.0282    301.74967 
   60710   0.95398079   -9404.7375    -406.6791    299.19196 
   60720   0.95424487   -9401.9289   -114.57217    294.40556 
   60730   0.95468041    -9399.357   -35.643556    296.87938 
   60740   0.95518743    -9396.436   -110.73179    301.02713 
   60750   0.95582827   -9393.3583   -77.532465      300.928 
   60760   0.95658459   -9390.2873   -10.660557    299.66704 
   60770    0.9573806   -9387.1715    14.537102    299.57224 
   60780     0.958178   -9383.9436    69.194805    301.90506 
   60790   0.95889884   -9380.4428    246.73797    300.09515 
   60800   0.95934808   -9376.9736    418.52656    295.15377 
   60810    0.9593239   -9373.6395     394.9695    297.51324 
   60820    0.9588202   -9369.9697    303.15011    300.09595 
   60830   0.95792474   -9366.1332    282.57567    296.19534 
   60840   0.95668168   -9362.1529    144.65963    294.46542 
   60850   0.95524846   -9357.7739   -164.85686    296.82696 
   60860   0.95398431   -9352.5138    -497.4188    300.80256 
   60870   0.95325566   -9346.6809   -511.45574    300.62894 
   60880   0.95309995   -9341.2068   -234.62844    299.05707 
   60890   0.95322054   -9336.0284    86.655987    296.51973 
   60900   0.95327636   -9331.0007    116.72775    294.04228 
   60910   0.95321657   -9326.0163   -101.00502    297.67409 
   60920   0.95326526   -9320.9372   -242.50359     304.2472 
   60930   0.95357625   -9316.1748   -90.594476    303.23028 
   60940   0.95400695   -9311.8214    114.88868    298.39952 
   60950   0.95433787    -9307.979    108.39008    300.79475 
   60960   0.95455008   -9304.3624    57.231412    300.90258 
   60970   0.95470543   -9301.0073   -39.173878    299.64158 
   60980   0.95492505   -9298.0103   -227.74858    307.62582 
   60990    0.9553832   -9295.0642   -90.764895    306.85595 
   61000   0.95597069   -9293.0993    84.240376    308.81882 
   61010     0.956476    -9291.516    247.49362     305.1747 
   61020   0.95672527   -9290.3815    200.63853    303.18116 
   61030   0.95674995    -9289.556    35.068668    306.38065 
   61040   0.95670675   -9288.8535    33.460634    304.08116 
   61050   0.95663983   -9288.4577   -122.25476    311.45303 
   61060   0.95669531   -9288.2951   -143.14408    317.14186 
   61070    0.9569044   -9288.5166    100.44783    307.13731 
   61080   0.95704411   -9289.3356    105.70975     302.4002 
   61090   0.95706329   -9290.3939    33.389461    309.30681 
   61100   0.95701198   -9291.4791    136.48686    303.87237 
   61110   0.95683592   -9292.8078   -45.030204    305.57492 
   61120   0.95668821   -9294.0492   -130.97149    308.13222 
   61130   0.95667872   -9295.5117   -86.502272    311.08448 
   61140   0.95676463   -9297.4201    4.7690761    311.00381 
   61150   0.95685189    -9299.642    73.720599    308.30802 
   61160   0.95685271   -9302.1138    162.24775    306.58043 
   61170   0.95665415    -9304.781    274.57903    300.59092 
   61180   0.95614293   -9307.5116    155.60992    301.84488 
   61190   0.95541935   -9310.1836   -15.781729    305.61585 
   61200    0.9546646    -9312.728   -42.192763    304.90725 
   61210   0.95392841   -9315.3324   -41.648793    302.76199 
   61220   0.95323992   -9318.0347   -273.58647    308.54836 
   61230    0.9528297   -9320.5562   -366.34366    312.56207 
   61240    0.9528043   -9323.2297   -4.9991718    301.16461 
   61250   0.95279996   -9326.3299    324.02057    294.92791 
   61260   0.95242118   -9329.4341    422.47772    292.34028 
   61270   0.95155337   -9332.3888    118.88075    297.79566 
   61280   0.95048683   -9334.6422   -110.72833    294.42475 
   61290   0.94953397   -9336.4206   -373.34677    293.55446 
   61300   0.94898419   -9337.7709   -502.18419    299.27394 
   61310   0.94898644    -9339.068   -276.20373    296.99389 
   61320   0.94933855   -9340.8835   -120.09076    301.19981 
   61330   0.94983749   -9342.4427    72.527443    300.03246 
   61340   0.95028009    -9344.403    156.52455     300.2417 
   61350   0.95055683   -9346.2752    145.40298    296.80891 
   61360   0.95069218   -9347.9781   -39.271701    295.66543 
   61370   0.95087097    -9349.391   -158.55934    295.64871 
   61380   0.95123862    -9350.799   -128.06439    297.02428 
   61390   0.95176646   -9351.9777   -28.958966    296.46234 
   61400   0.95236219   -9353.3226    -22.94783    300.08281 
   61410   0.95299137   -9354.4072    69.135449    294.62287 
   61420   0.95359379    -9355.688   -69.497897    300.60155 
   61430   0.95426743    -9356.821    10.499881    299.70011 
   61440   0.95495051   -9358.0791    170.68161    296.18741 
   61450    0.9554631   -9359.4632    198.20831      302.334 
   61460   0.95574694   -9360.7409    182.75105    301.19969 
   61470    0.9558356    -9362.293    39.195805    302.91188 
   61480   0.95584685   -9363.6614    152.83351    295.16963 
   61490   0.95569216   -9365.3797      165.371    297.62912 
   61500   0.95534356   -9366.9136   -13.056317    303.26874 
   61510   0.95499555   -9368.2254   -175.95091    302.86818 
   61520   0.95484414   -9369.7427   -240.11154     304.0268 
   61530   0.95494607   -9371.4101   -35.154713    299.40847 
   61540   0.95510634   -9373.1923    144.88762    294.99267 
   61550   0.95511333   -9375.0858    147.79056    295.04334 
   61560   0.95494317    -9376.734    110.07877    293.12418 
   61570   0.95464171   -9378.4584     17.22976     296.2845 
   61580   0.95430437   -9379.8853   -59.086731    298.81463 
   61590   0.95403823   -9381.3247   -259.22907    304.82026 
   61600   0.95405615   -9382.9189   -315.94596    307.89492 
   61610   0.95442731   -9384.5896   -80.144374    299.32533 
   61620   0.95493154   -9386.5585    82.138683    293.22197 
   61630   0.95537139   -9388.6917    77.505893    298.14502 
   61640   0.95572082   -9390.5694    97.238668    297.73174 
   61650   0.95597988   -9392.6088    13.617022    300.37192 
   61660   0.95621708   -9394.6553    32.017877    298.63184 
   61670   0.95642711   -9396.5568    64.414697    294.49261 
   61680   0.95657948   -9398.6161   -27.915701    298.73102 
   61690   0.95675664   -9400.5724   -32.692118    296.51366 
   61700   0.95698707     -9402.53   -23.012443    292.72108 
   61710   0.95725219   -9404.3872     7.540399    294.40719 
   61720   0.95751289   -9406.1631     48.50708    299.01955 
   61730   0.95771287   -9408.2011     156.0724    298.85377 
   61740   0.95773314   -9410.2078    247.86054     294.6979 
   61750   0.95747536   -9412.2947     149.1853    295.31932 
   61760     0.957027   -9414.2307   -14.832245     298.2336 
   61770    0.9565726    -9416.068   -134.31137     299.6993 
   61780   0.95625027   -9417.9532   -108.39411     295.9334 
   61790   0.95604735   -9419.9928   -30.564884    294.29632 
   61800   0.95588573   -9421.9941   -37.573952    293.90774 
   61810   0.95577767   -9423.8782   -156.29013    292.39783 
   61820   0.95586565   -9425.7065   -361.49295    299.05996 
   61830   0.95635799   -9427.5305   -277.63343    296.58182 
   61840   0.95721894   -9429.6221   -186.97281    292.01921 
   61850   0.95836557   -9431.8771   -274.93407    301.56734 
   61860   0.95984382   -9434.4146   -40.723375    304.57355 
   61870   0.96141495    -9437.425    345.33498     300.4595 
   61880    0.9626355   -9440.7509    593.15726     297.4555 
   61890   0.96318148     -9444.18    727.50763    288.34591 
   61900   0.96291724   -9448.1009    425.40821    290.70689 
   61910   0.96211718   -9451.7199    116.79347    296.33693 
   61920   0.96113596   -9455.3467   -44.270377     295.8855 
   61930   0.96017926   -9459.0324   -209.24565    298.24059 
   61940   0.95943654   -9462.8607   -284.57971    298.11582 
   61950   0.95899952   -9467.0794    -218.9175    297.58658 
   61960   0.95880194   -9471.7878   -65.516639    295.38781 
   61970   0.95868307   -9476.7278    50.515473    289.82638 
   61980   0.95852583   -9481.7908   -32.629583    289.38068 
   61990   0.95839935   -9486.7954   -114.17571    290.46326 
   62000   0.95840624   -9491.7853   -198.29064    292.88201 
   62010   0.95864804   -9496.9508   -235.77544    295.26974 
   62020   0.95916558   -9502.1929   -106.55537    293.91363 
   62030   0.95983199   -9507.4717    55.131056     291.0753 
   62040   0.96046475   -9512.6901    160.72173    289.47745 
   62050   0.96093923   -9517.7519    165.04246        290.8 
   62060   0.96122377    -9522.403    222.95153    286.07509 
   62070   0.96126371   -9526.7228     155.8445    285.88249 
   62080   0.96113322   -9530.5464   -97.585092    291.34976 
   62090   0.96109874   -9533.5703   -207.87452    287.57911 
   62100   0.96131753   -9536.3482   -248.07677    289.07415 
   62110   0.96182131   -9538.8014    -98.33772    291.00156 
   62120   0.96246061    -9541.137    107.61157    289.76041 
   62130   0.96301118   -9543.2001    169.13208    291.26258 
   62140   0.96338095    -9544.945    186.83511    289.91782 
   62150   0.96353812   -9546.2545    209.96241    284.53586 
   62160   0.96347254   -9547.4845    40.089042    287.07992 
   62170   0.96335787   -9547.9218   -178.20192    287.71378 
   62180   0.96345282   -9547.9896   -322.14239    288.90838 
   62190   0.96392134    -9547.822   -238.33752      288.159 
   62200   0.96469721   -9547.3787   -94.048016    288.41584 
   62210   0.96562765   -9546.9361   -47.345031    296.45409 
   62220   0.96663058   -9546.3216    153.76564    295.52102 
   62230   0.96749609   -9545.8368     335.2619    293.54635 
   62240   0.96799918   -9545.3316    394.12495    297.29728 
   62250   0.96802876   -9544.9814     499.0294    293.97504 
   62260   0.96746962   -9544.8204    476.09774    288.30488 
   62270   0.96634388   -9544.5038    128.11485    293.15516 
   62280   0.96499757   -9543.5011   -94.440139    292.46304 
   62290   0.96371668   -9542.2706   -244.82235      289.156 
   62300   0.96270518   -9540.4544   -481.59121    292.16843 
   62310   0.96222636   -9538.4833   -520.98646    295.57204 
   62320   0.96233572   -9536.5426   -263.28128    291.19537 
   62330   0.96278726   -9534.8108      -94.188    289.71755 
   62340   0.96337283   -9533.0494    6.7735162    289.93785 
   62350   0.96395895   -9531.1225    168.88291    288.04022 
   62360   0.96437901   -9529.2984    186.55099    289.40878 
   62370   0.96459315   -9527.1739    111.27526     290.9968 
   62380   0.96467699   -9525.0132    57.726747    292.35789 
   62390   0.96468835    -9522.898    68.852573    292.09975 
   62400   0.96461579   -9520.5985     104.4715    287.42749 
   62410   0.96444076   -9518.3268   -87.458205    294.04918 
   62420   0.96433014      -9515.7   -39.988302    292.61482 
   62430   0.96426098    -9513.289    80.917623    290.21466 
   62440   0.96411307   -9511.1223    18.380353    295.19693 
   62450   0.96391714   -9508.7524    104.36861    287.50173 
   62460   0.96361412   -9506.6136    56.278913    286.85134 
   62470   0.96324812   -9504.3419   -130.63755    293.65696 
   62480   0.96300451   -9501.7578   -144.38701    293.61337 
   62490   0.96292809   -9499.3432   -104.49136    294.53498 
   62500   0.96297322   -9496.8971   -81.486736    296.36466 
   62510   0.96312085   -9494.6258   -97.356487    297.52586 
   62520   0.96338276   -9492.5832   -48.663512    298.41811 
   62530   0.96369602   -9490.7164    173.43099    293.03726 
   62540   0.96382351   -9489.2233    299.93649    292.03085 
   62550   0.96359678   -9487.6649    299.42026    294.36066 
   62560   0.96300977   -9486.1243    200.68046    292.65368 
   62570   0.96217762   -9484.5732   -25.135787     294.6352 
   62580   0.96134796   -9482.8624   -231.97128    297.28498 
   62590   0.96075936   -9480.6751   -296.02824    295.78726 
   62600   0.96051042   -9478.6729   -297.68112     296.8249 
   62610   0.96061396    -9477.032   -289.97249    303.17477 
   62620   0.96104132   -9475.4339   -46.686005    301.13503 
   62630   0.96153427   -9474.2548    247.78116     296.1054 
   62640   0.96177324    -9473.349    286.74057    294.19551 
   62650   0.96168814   -9472.3627    155.46625    295.11732 
   62660   0.96140987    -9471.178     10.43804    297.92994 
   62670   0.96110695   -9469.7672   -112.10907    295.52024 
   62680    0.9609368   -9468.2449   -217.92047    292.62123 
   62690   0.96102024   -9466.9861   -222.68124    296.44405 
   62700   0.96134239   -9465.4732    32.096474    291.94251 
   62710   0.96165888   -9464.0581    162.95399    288.51052 
   62720   0.96181259   -9462.5678    79.744696    290.27703 
   62730   0.96187761   -9460.7192   -57.581949    294.84301 
   62740   0.96198824   -9458.7346    -3.827365    296.68328 
   62750   0.96209941   -9456.7702    139.02848    291.86999 
   62760   0.96208845   -9454.7954   -74.793823    299.19027 
   62770   0.96213517    -9452.529   -76.196675    297.78349 
   62780   0.96226794    -9450.512    72.267332    295.23499 
   62790   0.96231847   -9448.4381    210.05879    294.35238 
   62800   0.96213585   -9446.5123    183.91026    294.72755 
   62810   0.96173492   -9444.5288    22.148275    301.14267 
   62820   0.96126059   -9442.3149    96.784914    294.99103 
   62830   0.96067355   -9440.3163     17.89061    297.21352 
   62840   0.96004664   -9438.1299   -131.78194    295.61859 
   62850   0.95957223      -9435.7   -368.44261    298.55087 
   62860   0.95949358   -9433.2275   -307.92958    298.13015 
   62870    0.9597777   -9430.8641    -89.39125    290.29293 
   62880    0.9602268   -9428.5946   -173.63165     291.8681 
   62890   0.96090534   -9426.1545   -301.02667    298.63209 
   62900   0.96194928   -9423.6311   -211.76402    301.19631 
   62910    0.9632763   -9421.4532    31.258918    301.05738 
   62920   0.96461791   -9419.5328    251.88753    301.76682 
   62930   0.96570163   -9417.7267    452.54137    297.83312 
   62940   0.96630762   -9416.0748    387.66796     299.4786 
   62950   0.96645015   -9414.5104    371.47344    300.45316 
   62960   0.96613662   -9413.0212    449.48774    296.71207 
   62970   0.96528269   -9411.9695    405.78935    296.06723 
   62980   0.96391143   -9410.8994     324.7266    291.25741 
   62990   0.96212521   -9409.6842     62.34565    290.43589 
   63000   0.96023094   -9407.8104   -394.10896    300.48117 
   63010   0.95871741   -9405.1052   -479.69057    298.02074 
   63020   0.95773989   -9402.4733   -438.97605    297.71997 
   63030   0.95725316   -9400.0134   -262.00606    297.99575 
   63040   0.95706123   -9397.7069   -5.9526502    292.30572 
   63050   0.95689811   -9395.5617    24.016762    290.31204 
   63060   0.95672869   -9393.1597   -203.35056    293.78928 
   63070   0.95679985   -9390.4134    -429.2081    295.63595 
   63080   0.95737805   -9387.6216   -487.53959    297.95341 
   63090   0.95854217    -9385.266   -286.51373     299.5393 
   63100   0.96006674   -9382.8719    155.39173    292.89688 
   63110   0.96147968    -9380.731    341.89905    296.13356 
   63120   0.96252776    -9378.361    357.08414    298.14828 
   63130   0.96319224   -9376.0557    209.10079    299.26824 
   63140   0.96361929   -9373.7434    58.531853    301.68268 
   63150   0.96397015   -9371.5525    57.814251    301.05113 
   63160   0.96427106   -9369.5378   -13.784123    302.67396 
   63170   0.96459222   -9367.5971    -61.65412    301.27495 
   63180   0.96499802   -9366.0124   -56.610199    301.93934 
   63190   0.96546769    -9364.505    111.43123    298.65637 
   63200    0.9658312   -9363.1798    212.55292     298.8802 
   63210   0.96594624   -9362.0277     257.5854    300.37434 
   63220   0.96574925   -9361.1408    300.04283    299.35395 
   63230   0.96519881   -9360.2659    195.62949    301.93881 
   63240   0.96439673   -9359.4913    24.342811    304.19939 
   63250   0.96353384   -9358.6095   -109.42398    301.29473 
   63260   0.96277724   -9357.9034   -221.64348    304.63128 
   63270   0.96223448   -9357.1952   -100.40177    300.25247 
   63280    0.9618081    -9356.737   -41.063109     296.7057 
   63290   0.96142955   -9356.2953   -91.195352     296.8451 
   63300   0.96115537   -9355.9061   -195.10049    301.25577 
   63310   0.96108899   -9355.4357   -154.46378     303.8952 
   63320   0.96118975   -9355.0844    71.821923    295.70569 
   63330   0.96123292   -9355.0635    144.19638    292.28315 
   63340   0.96111964   -9354.8946    86.939606    292.24875 
   63350   0.96090817   -9354.4065   -92.657666     297.7713 
   63360     0.960787   -9353.8071   -230.65685    301.77626 
   63370   0.96092627   -9353.1328   -252.51468    301.47097 
   63380   0.96137628   -9352.9206   -201.97431    304.88204 
   63390   0.96206739    -9352.832    33.029669    299.83779 
   63400   0.96275883   -9352.8639    206.02211    298.20316 
   63410   0.96324096   -9353.1065    208.77452    303.52451 
   63420    0.9634805   -9353.4767    214.67045    303.37956 
   63430   0.96347179     -9353.96    198.17074    303.10592 
   63440   0.96323665   -9354.7406    41.243787    310.76616 
   63450   0.96291278   -9355.4763    118.84842    301.42147 
   63460   0.96246252   -9356.5522    24.407205    300.92414 
   63470   0.96196773   -9357.6492   -121.39139    305.68587 
   63480   0.96156598   -9358.6834    19.277301    300.46612 
   63490    0.9611445   -9359.7035    102.58186    292.03088 
   63500   0.96063058   -9360.5341   -212.43672    301.79223 
   63510    0.9603251   -9361.2086   -392.60056    310.59046 
   63520   0.96045001   -9361.9695   -230.31764     306.4246 
   63530   0.96085792   -9363.0955     58.23585    302.09722 
   63540   0.96120682   -9364.5269    352.56192    298.63462 
   63550   0.96116696    -9365.922    384.28985    295.43351 
   63560   0.96069037   -9367.3513    123.02121     301.3169 
   63570    0.9600243    -9368.308    19.990767    301.84899 
   63580   0.95931509   -9369.2575   -61.205751    302.65686 
   63590   0.95865144   -9370.1952   -108.73016    301.04606 
   63600    0.9581118   -9370.9987   -194.64249    300.00565 
   63610   0.95779089   -9371.7831   -256.55489    302.06744 
   63620   0.95775852   -9372.5987   -216.69857    304.58187 
   63630   0.95797448   -9373.7428    -77.37276    304.07228 
   63640   0.95828634    -9374.974    123.08772    298.68612 
   63650   0.95846999    -9376.184    240.83188    296.46496 
   63660   0.95837956   -9377.5025    219.78075    298.88245 
   63670   0.95803151    -9378.576    96.721174    295.84648 
   63680   0.95757916   -9379.6186   -170.82839    299.98985 
   63690   0.95728474   -9380.2977   -140.02465    296.68396 
   63700   0.95715532    -9380.836   -44.624902    293.40903 
   63710   0.95708948   -9381.6871   -81.866637    302.21048 
   63720   0.95709189   -9382.3128     52.78825    300.73154 
   63730   0.95704846   -9383.1752    36.784381    303.36085 
   63740   0.95693515   -9384.0508    182.39591    295.41451 
   63750   0.95662534   -9385.0428    214.03792     290.8802 
   63760   0.95606121    -9385.933    114.56895    289.97759 
   63770   0.95535961   -9386.3027   -125.74348    290.50322 
   63780   0.95478651   -9386.1602    -335.4441    294.92208 
   63790   0.95457481   -9385.6714   -259.74291    290.58751 
   63800   0.95469174   -9385.3396   -289.05391    296.76104 
   63810   0.95513773   -9384.8803   -198.99168    300.31987 
   63820    0.9558297   -9384.6719   -65.875903     300.3326 
   63830   0.95663637    -9384.525   -32.572326    301.78241 
   63840   0.95750421   -9384.6915    15.851948     304.8962 
   63850   0.95836905   -9384.7563    124.71498    300.66011 
   63860   0.95913641   -9385.3524    20.566985    311.37459 
   63870   0.95983918   -9386.0377    351.26062    302.51968 
   63880   0.96018039    -9387.093    467.28151    296.44113 
   63890     0.959988   -9388.4073    319.22764    298.41041 
   63900    0.9594058   -9389.5889     128.1601    299.77689 
   63910   0.95863077   -9390.7457    77.187282    299.03212 
   63920    0.9577233   -9391.8673    179.47448    291.69991 
   63930   0.95660484   -9393.0817    4.3912541    293.57124 
   63940   0.95545992   -9393.6423   -320.03163    297.61944 
   63950   0.95464438   -9393.6599   -418.20221    293.35728 
   63960   0.95432339   -9393.7592   -537.78797    298.72595 
   63970    0.9546246   -9393.8862   -536.04527    306.18223 
   63980   0.95555509   -9394.6268   -247.20196    301.60775 
   63990   0.95681791   -9395.4198    95.781705    291.99402 
   64000   0.95805675   -9396.4875    73.980879    299.42439 
   64010   0.95921424   -9397.4114    179.87477     303.3764 
   64020   0.96018276   -9398.5668    384.94057    299.24904 
   64030   0.96074109   -9399.9293    405.00305    294.62813 
   64040   0.96084552   -9401.3518    253.33073    292.91037 
   64050     0.960643   -9402.4863    90.506133    296.49464 
   64060     0.960316   -9403.5849   -45.010976    300.44598 
   64070   0.96001791   -9404.6218   -77.105658    300.16392 
   64080   0.95980318   -9405.8897   -38.860226    300.04828 
   64090   0.95961386   -9407.2005    98.237221    293.99637 
   64100   0.95932469   -9408.5897    63.082566    288.59422 
   64110   0.95897724   -9409.8344    -233.4224    293.25263 
   64120   0.95889907   -9410.5227   -524.31036    297.04568 
   64130   0.95942768   -9411.4099   -493.71374    297.09257 
   64140   0.96055105   -9412.3866   -110.63363    291.55402 
   64150   0.96188422   -9413.9495     74.15459    303.73971 
   64160     0.963143   -9415.3671    480.51292    295.81604 
   64170   0.96391975   -9416.9549    576.34404    289.82893 
   64180   0.96404426    -9418.623    468.27522     292.5225 
   64190    0.9635958   -9420.2259    353.43017    295.11111 
   64200    0.9626906    -9421.905    228.90713    295.66452 
   64210   0.96146189   -9423.5017    140.27679    288.69056 
   64220   0.96003284   -9424.7996   -116.86934    292.66131 
   64230   0.95868059   -9425.7389   -363.43973    298.35323 
   64240   0.95769902   -9426.2199   -428.53028    297.26125 
   64250   0.95718688   -9427.0589   -303.03443    297.56951 
   64260   0.95699966   -9428.0331   -4.2087713    291.60056 
   64270   0.95684374   -9429.1708      24.9659    292.88169 
   64280   0.95664624   -9430.0906    6.3851423    292.46786 
   64290   0.95644333   -9431.0038     -81.6208    295.27532 
   64300   0.95632912   -9432.0168   -182.36399    299.75058 
   64310   0.95640927   -9432.7366   -80.313165    296.73348 
   64320   0.95659479   -9433.8557    68.127119    293.51806 
   64330    0.9567143   -9434.7946    145.30902    288.79644 
   64340   0.95668592    -9435.744    20.363283    293.36532 
   64350   0.95660883   -9436.3221    22.300752    292.25966 
   64360     0.956518   -9436.8548   -87.353306    295.74205 
   64370   0.95651816   -9437.3334   -131.08905    299.79361 
   64380   0.95665235   -9437.6819    58.694296    291.02489 
   64390   0.95675448    -9438.317    30.269284    294.36726 
   64400   0.95680971    -9438.687    50.014664    296.73448 
   64410   0.95681707   -9438.9678   -9.6025309    296.53379 
   64420   0.95683696   -9439.2795   -49.264535    295.20851 
   64430   0.95689998   -9439.4154    65.341708    293.39761 
   64440   0.95690108   -9439.6691    56.414934    298.98773 
   64450   0.95681413   -9439.7325    143.23511    294.76909 
   64460   0.95656701   -9439.9295    108.06619    294.17353 
   64470    0.9561873   -9440.0008   -47.655551    298.83922 
   64480    0.9558318   -9439.7975   -94.185156    300.61645 
   64490   0.95556238   -9439.6308   -10.054253    295.94935 
   64500    0.9552967   -9439.6984    82.985981    293.77553 
   64510   0.95492775   -9439.7108    115.18619    291.52423 
   64520   0.95441541    -9439.304    77.754123    287.15258 
   64530   0.95381273   -9438.7531   -152.91755     295.1764 
   64540   0.95333744   -9437.6265   -156.74079    295.08386 
   64550   0.95303478   -9436.4815   -113.10671    292.11194 
   64560   0.95287908   -9435.1883   -227.89241    292.96807 
   64570   0.95299663   -9433.5699   -376.28894    296.47932 
   64580   0.95356194    -9431.917    -379.3591    296.13767 
   64590   0.95459565   -9430.1587    -220.2202    292.06254 
   64600   0.95593644   -9428.3712   -75.208264    293.98213 
   64610   0.95739458     -9426.48    178.80894    290.52928 
   64620   0.95870125   -9424.3205    260.52103    291.36165 
   64630    0.9597377   -9422.2018    175.05574    304.39416 
   64640   0.96052501    -9419.687    484.07752    298.23033 
   64650   0.96078474   -9417.7085    542.01898    297.13012 
   64660   0.96040709   -9415.4694    422.02997    293.63008 
   64670   0.95954645   -9413.1417    94.584362    293.26037 
   64680   0.95856156   -9410.1648   -322.98065    301.85447 
   64690   0.95792019    -9406.686   -529.10527    308.14741 
   64700   0.95786312   -9403.1171   -357.78777    302.77068 
   64710   0.95824835   -9400.2639   -190.39917    300.97021 
   64720   0.95887258   -9397.6416   -11.393482    302.61489 
   64730   0.95951613   -9395.2555    217.01588    304.31658 
   64740   0.95991532    -9393.165    367.16042     302.1255 
   64750   0.95990043   -9391.1638    332.46078    298.89682 
   64760   0.95950439   -9389.3064    87.879742    301.76334 
   64770   0.95899868   -9387.1649   -226.38295    307.84092 
   64780   0.95872675   -9385.0823   -299.62096    306.15686 
   64790   0.95879928   -9383.1773   -199.90054    301.41371 
   64800   0.95912645   -9381.6089   -140.74628    301.13255 
   64810   0.95963434   -9380.1357   -86.893473    304.95757 
   64820   0.96024046   -9378.8707    132.76579    302.62274 
   64830   0.96070684    -9377.796    314.12672    301.79919 
   64840   0.96083573    -9377.104    229.73618    305.25738 
   64850    0.9606821   -9376.3437    134.74652    302.80168 
   64860   0.96037346   -9375.8107   -14.697219    304.94362 
   64870   0.96005203   -9375.2057    19.873344    297.97658 
   64880   0.95971776   -9374.8825   -22.943153    298.30506 
   64890   0.95937974    -9374.379    21.940884    299.18916 
   64900   0.95900809   -9374.0117    52.780573    298.61251 
   64910   0.95855811    -9373.459    72.042173    294.59494 
   64920   0.95803969   -9372.9606   -161.27725    300.48912 
   64930   0.95767873   -9372.1581    -304.4156    303.36171 
   64940   0.95765682   -9371.4167    -257.5383    304.67739 
   64950   0.95791763   -9371.1766    55.411855    301.32639 
   64960   0.95813307   -9371.0958     335.6227    293.00962 
   64970   0.95800058   -9371.0998    199.48601    295.36129 
   64980   0.95762202   -9370.9583   -52.268707    304.10995 
   64990   0.95724887   -9370.4475   -11.983189    298.12164 
   65000   0.95689265   -9370.2729   -44.158604    298.78614 
   65010   0.95657386   -9370.0042   -72.516249    298.60887 
   65020   0.95632326   -9369.5975   -22.348398     295.0335 
   65030   0.95608966   -9369.1925    52.223862    291.82142 
   65040    0.9558012    -9368.802   -14.987751    295.29921 
   65050    0.9555006   -9368.0749   -23.707928    293.10787 
   65060   0.95523407   -9367.1224   -167.36679    293.74437 
   65070   0.95515269    -9365.727   -260.46614    293.92363 
   65080   0.95538095   -9364.2511   -272.00781    294.37595 
   65090    0.9559575   -9362.4454   -310.45133    299.45435 
   65100   0.95693632   -9360.7235   -289.33889    303.05308 
   65110   0.95831342   -9359.2912   -197.91931    310.95409 
   65120   0.95995883   -9358.0388    233.26609    305.32761 
   65130   0.96142155   -9357.0851    540.02434    301.80652 
   65140   0.96230276   -9356.0889    671.19672    299.15692 
   65150   0.96244813   -9355.1902    405.44772    303.57463 
   65160   0.96210963   -9354.2893    17.565181     312.1744 
   65170   0.96168429   -9353.3407    64.730986    304.83771 
   65180    0.9611837   -9352.9576     34.04694    309.42155 
   65190   0.96060127   -9352.7297    84.631985    310.11972 
   65200   0.95988225   -9352.8033    240.41005    300.56898 
   65210      0.95886   -9353.3767    222.11027    300.32202 
   65220   0.95753323   -9354.0285    67.450012    299.42559 
   65230    0.9560795   -9354.5329   -169.58189    300.67072 
   65240   0.95475809   -9354.5712   -250.88906     299.9021 
   65250   0.95368768   -9354.8254   -287.57085    304.62146 
   65260   0.95290111   -9355.1716   -141.41694     299.3947 
   65270   0.95227524   -9355.7795   -72.364969     293.9832 
   65280   0.95172302   -9356.4242   -85.385465    295.31431 
   65290   0.95124642    -9356.737   -76.349064    294.69298 
   65300   0.95086028   -9357.1678   -184.72361     297.3577 
   65310   0.95068829   -9357.3336   -331.55931    296.03463 
   65320   0.95091347   -9357.4972   -423.30725    295.55319 
   65330   0.95164103   -9357.5562   -281.41188    294.55502 
   65340   0.95272777   -9357.8038   -21.794437    292.06226 
   65350   0.95390407   -9358.2965    36.543998    300.88575 
   65360   0.95506778   -9358.5233    106.22999    299.73045 
   65370   0.95616341   -9358.9604    83.889488    299.03255 
   65380   0.95718395   -9359.3912    143.78993    299.34848 
   65390   0.95806191    -9359.829    207.25481    299.94737 
   65400   0.95873753   -9360.6648     60.83898    307.66443 
   65410   0.95934007   -9361.5263    65.114255    305.76947 
   65420   0.95988282   -9362.3693    117.09378    300.24109 
   65430   0.96033838   -9363.6278   -100.63005    307.52669 
   65440   0.96090255   -9365.2927   -112.45984    308.53603 
   65450   0.96160127   -9367.1181    96.769095    304.55741 
   65460   0.96220131   -9369.4095    355.12237    295.97592 
   65470   0.96242913   -9371.8135    313.14722    293.79642 
   65480   0.96229875   -9374.2167    90.893129    296.04945 
   65490   0.96204843   -9376.2915   -63.967787    295.14072 
   65500   0.96187296   -9378.4399   -233.11464    299.67847 
   65510   0.96195407   -9380.5002   -250.77603    299.33833 
   65520   0.96233976   -9382.7451   -215.21183    300.63205 
   65530   0.96297396   -9385.3016    8.6434739    299.97124 
   65540   0.96363282   -9388.0703    146.75381    300.68012 
   65550   0.96413487        -9391     203.6863    299.22209 
   65560   0.96441598   -9393.9799    218.04921    297.25405 
   65570   0.96443385   -9397.0752    279.29759    295.60678 
   65580   0.96412107   -9400.2362    274.09837    292.86473 
   65590   0.96348263   -9403.5318    109.82994    296.97189 
   65600   0.96268547   -9406.5009   -33.097827    294.61631 
   65610   0.96192477   -9409.3694   -299.84455    302.95232 
   65620   0.96144967   -9411.9884   -163.69268    298.55812 
   65630   0.96118353   -9414.6974   -147.61209    296.69843 
   65640   0.96109566   -9417.4211   -271.91431    304.90617 
   65650   0.96130027   -9420.4722   -150.79901    307.43666 
   65660   0.96167048   -9423.9579    164.55695    301.13227 
   65670   0.96189129   -9427.6896    212.82558    296.94259 
   65680   0.96189398   -9431.3352    -12.36142    298.99341 
   65690   0.96190728   -9434.5718   -198.10179    302.30303 
   65700   0.96216376   -9438.2867    -383.4251    309.55653 
   65710   0.96285928   -9441.9666    -287.5384    304.14588 
   65720   0.96392935   -9446.1965   -155.38449    306.13677 
   65730   0.96519231   -9450.4576    158.81922    305.55085 
   65740   0.96628558   -9454.9151    598.34884     297.2028 
   65750   0.96671977   -9459.3653    748.96956     292.3558 
   65760   0.96628983    -9463.998    555.18506    295.94067 
   65770   0.96517887   -9468.0695    315.20915    290.54526 
   65780   0.96368469   -9471.5603   -67.446435    291.08654 
   65790   0.96222341   -9474.3544   -340.00315    295.32293 
   65800   0.96111933   -9476.5147   -424.31108    294.65746 
   65810    0.9605037   -9478.4691   -448.33425    295.48078 
   65820   0.96039894   -9480.4499   -330.04789    298.40603 
   65830   0.96066277   -9482.3196    22.757796    292.32252 
   65840   0.96093435   -9484.1648     185.5466    287.66778 
   65850   0.96103256   -9485.8438   -48.534602    295.22981 
   65860   0.96117635   -9487.1534   -178.86172      299.198 
   65870   0.96150169   -9488.2166    44.509274    295.21643 
   65880   0.96177943   -9489.4116    296.38105      294.115 
   65890    0.9617256   -9490.5541    343.18731    289.74151 
   65900   0.96129135   -9491.5272    37.351617    292.19895 
   65910   0.96078965   -9492.1446   -253.58735    298.23674 
   65920   0.96054443   -9492.4208   -253.82355     297.5497 
   65930   0.96058788   -9492.5793   -80.015591    286.30618 
   65940   0.96077127   -9492.5914   -128.91606    285.68158 
   65950   0.96112136   -9492.1935   -232.13733    290.59069 
   65960   0.96176619   -9491.6345    -344.9682    298.70687 
   65970   0.96281335   -9491.1828   -177.47499    299.14802 
   65980   0.96408145   -9490.7447    264.69784    290.14854 
   65990   0.96510116     -9490.39    465.67474    286.36936 
   66000   0.96562378   -9489.9168    301.71413    290.10804 
   66010   0.96580282   -9488.9815    21.856305    295.23775 
   66020    0.9659417   -9487.6836   -112.76288    298.63338 
   66030   0.96619616   -9486.4126    2.4454454    298.85511 
   66040   0.96644424   -9485.2995    247.12238    294.27719 
   66050   0.96643166   -9484.3572    245.59398    293.82764 
   66060   0.96613711   -9483.1597    70.179943    292.68776 
   66070   0.96574973   -9481.5897   -127.83208    293.47693 
   66080   0.96549499   -9479.8566   -220.25021    296.33709 
   66090   0.96547388   -9477.8895   -105.05234    293.74908 
   66100   0.96559651   -9476.1112   -99.187718    298.48139 
   66110   0.96583458   -9474.2132   -74.661486    299.34426 
   66120   0.96617378   -9472.5324   -44.764167    303.71689 
   66130   0.96656088   -9470.8379    148.01453    299.97347 
   66140   0.96680001   -9469.3519    248.18061    297.55333 
   66150   0.96676417    -9468.012    159.59116    300.64919 
   66160   0.96652643   -9466.7067    97.221563    301.51708 
   66170   0.96614501   -9465.4191    188.98337    296.61697 
   66180   0.96553685   -9464.4123    173.33137    297.74482 
   66190   0.96467448    -9463.153    264.23847    290.28102 
   66200   0.96349875   -9462.0039    66.840746    290.33395 
   66210   0.96221137   -9460.2451   -288.02714    295.46943 
   66220   0.96118905   -9457.7355   -329.42558    292.65744 
   66230   0.96053229   -9455.0341    -315.2504    295.10655 
   66240   0.96023152   -9452.3809   -259.43848    296.96139 
   66250   0.96022113    -9449.791   -112.67077    294.99712 
   66260   0.96034187   -9447.0207    90.132173    287.77521 
   66270   0.96039683   -9444.2506    16.151226    288.51396 
   66280   0.96044165   -9440.9561   -147.35441    295.36997 
   66290   0.96063856   -9437.3946   -107.59558    297.91652 
   66300   0.96095715   -9433.8754    78.284223    298.84095 
   66310   0.96117858   -9430.1685    379.60662    289.82416 
   66320   0.96100132   -9426.5972    288.24135    288.64989 
   66330    0.9604834   -9422.8166    47.544911    291.21247 
   66340   0.95988193     -9418.32   -133.11631       292.58 
   66350   0.95940932   -9413.6992   -234.13659    297.39432 
   66360   0.95917346   -9408.9335   -120.20295    298.56296 
   66370   0.95907345   -9404.3042    35.204437    294.68313 
   66380    0.9589511   -9399.8264    9.8374011     299.8544 
   66390   0.95880124   -9395.4702    2.8796085    302.98292 
   66400   0.95863834   -9391.3523     55.90223     297.1452 
   66410   0.95841651   -9387.7001    35.380515    293.45286 
   66420   0.95816182   -9384.0852   -133.66903    298.65043 
   66430   0.95804167   -9380.5369    -206.2297    298.73491 
   66440   0.95817512   -9377.4153   -310.59053    306.10474 
   66450   0.95865209   -9374.5761   -95.673368    302.25928 
   66460   0.95927542   -9372.6935     108.0413    301.82306 
   66470   0.95978242        -9371    297.23718    297.83945 
   66480   0.95998493   -9369.6646    179.16541    299.06279 
   66490   0.95997616    -9368.538    2.5165273    303.30947 
   66500   0.95995382   -9367.4034   -91.857683    306.97456 
   66510   0.96002085    -9366.835   -28.037691      309.569 
   66520   0.96011283   -9366.6412    180.15502    300.08181 
   66530   0.96002634   -9366.7379    157.46558    300.47484 
   66540   0.95974602   -9366.7527    82.964686    299.92698 
   66550   0.95938533   -9366.8924   -251.37507    306.80144 
   66560   0.95928797   -9366.8241   -401.43345    309.32894 
   66570    0.9596342   -9367.0637   -125.75315    303.64643 
   66580   0.96014556    -9367.864    198.27555    301.93223 
   66590   0.96044424    -9368.786    385.10515    298.31759 
   66600   0.96031041   -9369.7812    321.55087    297.25304 
   66610   0.95979631   -9370.7383    83.494578    296.99682 
   66620   0.95917995   -9371.4075   -238.11635    303.87928 
   66630    0.9587905   -9371.6851   -211.84452    299.66016 
   66640   0.95867002    -9372.187   -275.39534    304.38928 
   66650   0.95884867   -9372.8647   -155.28776     307.4178 
   66660   0.95920986   -9373.9239    83.447526     301.0693 
   66670   0.95951435   -9375.4375    66.321591    303.21784 
   66680   0.95973867   -9376.7857    89.084941    299.40544 
   66690   0.95986716   -9378.2886    114.60373    298.83716 
   66700   0.95984898    -9379.779    200.80566    296.44966 
   66710   0.95962537   -9381.1724   -21.828158     302.6362 
   66720   0.95940482   -9382.5845    -161.4204    305.25852 
   66730     0.959339   -9383.8325    48.520988    293.81537 
   66740   0.95924792   -9385.3724    46.430009    291.60152 
   66750    0.9591119   -9386.7345   -140.76575    296.90112 
   66760   0.95912328     -9387.64   -206.34672    295.96036 
   66770   0.95938352   -9388.6541    -202.7086    296.28452 
   66780   0.95988633   -9389.7236   -83.928702    299.09007 
   66790   0.96048712   -9390.9435    209.29281    297.88284 
   66800   0.96086562   -9392.3997    357.41936    299.85104 
   66810   0.96082448   -9393.9166    432.30644    294.53062 
   66820   0.96027868   -9395.6214    379.61835    288.52317 
   66830   0.95928219   -9396.9435    97.893475    288.68526 
   66840    0.9581344   -9397.5717   -237.52386    294.86031 
   66850   0.95721319   -9397.6847   -381.59301    297.29023 
   66860   0.95671062   -9397.7839   -362.57544    298.33828 
   66870   0.95662284   -9398.1251   -250.30499    296.99419 
   66880   0.95684781   -9398.2813   -210.93761    294.21686 
   66890   0.95734852   -9398.4431   -290.46453    298.36247 
   66900   0.95820577   -9398.6836   -277.03285    300.75532 
   66910   0.95942352   -9399.2456   -139.74399    299.30421 
   66920   0.96083955   -9399.8553    187.71945    294.02707 
   66930   0.96209307   -9400.6672    375.52045    298.98311 
   66940   0.96293396   -9401.2844    445.85918    300.78634 
   66950   0.96326186   -9402.0596    494.54013    295.59008 
   66960   0.96302622   -9402.9314    353.22318    294.42356 
   66970   0.96237085   -9403.7104    69.607137    296.97865 
   66980    0.9615954   -9404.1837   -93.944932    298.62802 
   66990    0.9608906    -9404.549   -102.65238    296.56227 
   67000   0.96030409   -9405.0892   -228.27624    299.80845 
   67010   0.95996739    -9405.253   -329.39115    301.38427 
   67020   0.95999805   -9405.6418   -237.90401    302.69103 
   67030   0.96029328    -9406.343    70.685861    300.28488 
   67040   0.96052012   -9407.2797    325.48262    295.26329 
   67050   0.96038917    -9408.388    360.40826    292.84901 
   67060   0.95982151   -9409.4217    308.58832    288.93871 
   67070   0.95888774    -9410.372   -9.4903585    292.90912 
   67080   0.95792074   -9410.6162   -293.67979    295.12103 
   67090   0.95726144   -9410.5521   -425.38711    296.97721 
   67100    0.9570807   -9410.5089   -410.61099    298.80993 
   67110   0.95738026   -9410.4183   -256.33818    296.24754 
   67120    0.9580153    -9410.362    -145.7523     293.7985 
   67130   0.95885957   -9410.6819    -103.6667    297.31064 
   67140   0.95983917   -9410.9228    105.15138    295.75196 
   67150   0.96074215   -9411.1603    241.50891     295.4613 
   67160   0.96139386   -9411.3444    311.57803    295.56436 
   67170   0.96170075   -9411.4378    330.43921    290.10739 
   67180   0.96164316   -9411.3528    149.89866    291.95559 
   67190   0.96139072   -9411.0125   -12.745806    296.79089 
   67200   0.96112698   -9410.3727   -77.763619    300.79961 
   67210    0.9609399   -9409.6687   -58.063314    298.48839 
   67220   0.96082497   -9408.8534   -54.333501    292.07934 
   67230   0.96080228   -9407.9534    -269.9359    300.56782 
   67240   0.96105422   -9406.9747   -153.36702    300.20637 
   67250   0.96150618   -9406.0053     4.150255     296.5178 
   67260   0.96198407   -9405.1494    54.927622    295.72631 
   67270   0.96242653   -9404.2628    52.382837    296.81585 
   67280   0.96282469   -9403.1255    35.474811    301.32832 
   67290   0.96317733   -9402.0126    166.01343    301.64142 
   67300   0.96334442   -9400.8911    306.29243    296.17811 
   67310   0.96318209   -9400.0923    144.17567    298.93896 
   67320   0.96282978   -9398.9139   -5.3484759     300.2345 
   67330   0.96244927   -9397.7062    20.839261    298.07491 
   67340   0.96202408   -9396.4172    89.325755    295.21841 
   67350   0.96148284    -9395.164    56.832833     295.0857 
   67360   0.96085712   -9393.4964   -28.509499     295.0685 
   67370   0.96023477   -9391.8032   -33.478697    293.77291 
   67380   0.95963424   -9389.8172   -63.030562    292.79856 
   67390   0.95910023   -9387.3828   -199.48518    295.38515 
   67400   0.95876993   -9384.7156   -210.59502    298.70625 
   67410   0.95867387   -9381.8119   -123.10485    294.55745 
   67420   0.95874544   -9379.0469   -153.61591    295.20314 
   67430   0.95900178   -9375.9952   -133.53845     298.4516 
   67440   0.95941543   -9372.8114   -1.9137637    301.82408 
   67450   0.95982976   -9369.6753    238.59374    299.68377 
   67460   0.95999056   -9366.9738    323.47493    300.89423 
   67470   0.95975288   -9364.2577    399.91621    298.36847 
   67480   0.95905412   -9361.5612    195.20596    294.52543 
   67490    0.9581306    -9358.491   -299.81318    299.29198 
   67500   0.95751644   -9354.7983   -552.42467    305.00749 
   67510    0.9575115   -9350.9362    -384.1497    301.08082 
   67520   0.95797845   -9347.6328   -188.93916    301.85502 
   67530   0.95868394   -9344.6579    12.481334    302.72987 
   67540   0.95939873   -9341.7868    206.42346    299.68777 
   67550   0.95989256   -9339.2334     334.7821    301.25481 
   67560   0.96000359   -9336.8174    338.12329    301.26504 
   67570   0.95973951   -9334.4006    30.984405    306.62202 
   67580   0.95941796   -9331.8745   -240.55625    315.26483 
   67590   0.95934017   -9329.7174   -155.94116    314.17394 
   67600   0.95943605   -9328.3579    76.024144    310.03771 
   67610   0.95945791    -9327.604    184.65089    309.61201 
   67620   0.95926411   -9327.1978    210.98068     306.9062 
   67630   0.95881087   -9327.1345    237.27112    301.89761 
   67640   0.95806886   -9327.1637    185.35756    299.07946 
   67650   0.95709966   -9327.2464   -14.896421    301.55011 
   67660    0.9561152   -9327.1653   -145.72254    301.36221 
   67670   0.95527552   -9326.9686    -207.4288     300.5234 
   67680   0.95466059   -9326.7402   -209.92736    296.13761 
   67690   0.95430772   -9326.5994   -377.76037    300.28083 
   67700   0.95438836   -9326.5475   -464.32334    307.30977 
   67710   0.95499523   -9326.5709   -227.01975    304.80019 
   67720   0.95590019   -9327.2314    14.809821    303.33669 
   67730    0.9568322   -9328.0825    94.324753     301.8298 
   67740    0.9576992   -9329.2473   -26.152942    307.02499 
   67750   0.95859778   -9330.4952     11.62892    311.90096 
   67760   0.95947756   -9332.3757      309.303    311.86416 
   67770   0.96000483    -9334.897     619.4236     305.6252 
   67780   0.95984605   -9338.0156    494.08412    303.23089 
   67790   0.95910477   -9341.3728    138.36195    302.23135 
   67800   0.95817037    -9344.281   -133.69714    298.51301 
   67810   0.95737158   -9347.4118   -327.64142    303.01184 
   67820   0.95690649   -9350.5515   -216.76028    303.69562 
   67830   0.95670001    -9354.236   -125.44707    305.21544 
   67840   0.95663999   -9358.3502   -59.573407    306.74133 
   67850   0.95662951    -9362.806     157.5675    301.77757 
   67860   0.95644023   -9367.9992    267.17781    299.75657 
   67870   0.95593015   -9372.9539     269.7308    290.94144 
   67880   0.95511573   -9377.7771   -23.785266    294.77754 
   67890   0.95429239    -9382.331   -300.79373    303.16667 
   67900   0.95377197   -9386.6118   -278.97812    296.12292 
   67910   0.95359058   -9390.7013   -293.28263    294.48447 
   67920   0.95375991   -9394.7564   -328.23478    297.75989 
   67930   0.95431752   -9398.7251   -253.38046    300.44916 
   67940   0.95519184   -9402.7609   -62.545038    300.19937 
   67950   0.95617071   -9406.8529    199.25604    296.11972 
   67960   0.95694634   -9410.7336    469.38971    289.91656 
   67970   0.95720866    -9414.447    484.13079    291.65692 
   67980   0.95690576   -9417.7122    292.08264    290.04514 
   67990   0.95625648    -9420.313   -32.553393    286.63649 
   68000   0.95563027   -9422.2198   -406.91978    293.98247 
   68010   0.95542748   -9423.5206   -444.59936    300.21804 
   68020    0.9557225   -9424.9043   -130.16211    296.32839 
   68030   0.95619959   -9426.4135    134.33025    293.47705 
   68040   0.95655218   -9427.5988    213.38743    290.38313 
   68050   0.95669634   -9428.7483   -26.118424    298.12431 
   68060   0.95685304   -9429.6233   -118.19828    298.59337 
   68070     0.957153   -9430.2798   -65.832035    293.81481 
   68080   0.95755803   -9431.0393   -42.589801    295.02907 
   68090   0.95802496   -9431.6435    24.882187    297.33003 
   68100   0.95847657   -9432.2304    126.71396     301.0326 
   68110   0.95876803   -9432.8731    411.24269    295.69478 
   68120   0.95860978   -9433.6508    394.58177    295.77573 
   68130   0.95797061   -9434.4751    207.52715    296.19431 
   68140   0.95703697   -9435.0344    132.65103    291.81385 
   68150   0.95590722   -9435.2961    8.1049757    293.46683 
   68160    0.9547085   -9435.4978    -39.79269    290.79635 
   68170   0.95351935   -9435.5225   -189.60635    294.00511 
   68180   0.95250475   -9434.8986   -298.53844    295.36072 
   68190   0.95180441   -9434.1428   -321.57133    300.14654 
   68200   0.95144195   -9433.4738    -157.6568    296.71633 
   68210   0.95128467   -9432.9118   -171.38893    295.75128 
   68220   0.95133691    -9432.391   -247.51564    297.83609 
   68230   0.95166935   -9431.8417   -109.58593    296.11763 
   68240   0.95215262   -9431.4249     5.170323    293.56214 
   68250    0.9526673   -9430.7524   -15.639932    290.57373 
   68260    0.9532322   -9430.0548    -147.0517    297.55284 
   68270   0.95397291   -9429.2495   -108.45969    298.65995 
   68280   0.95487435   -9428.5993    6.5638904    293.08073 
   68290   0.95582179   -9427.7647    19.642948    290.76114 
   68300   0.95678267   -9426.7397    23.984639    291.15461 
   68310   0.95774309   -9425.7444    87.848026    293.63745 
   68320   0.95862125   -9424.4173    229.58089     291.5359 
   68330   0.95926824   -9423.3328    220.55123    297.17155 
   68340   0.95965147   -9421.8839    262.41036    292.33176 
   68350   0.95975595   -9420.5168    102.61404    297.26309 
   68360   0.95971813   -9418.9634     51.05269    297.26619 
   68370   0.95963228   -9417.3396   -62.236631    300.12949 
   68380   0.95960872   -9415.7668   -69.985285    302.07753 
   68390   0.95965075   -9414.1101    112.80012     295.9103 
   68400    0.9595889   -9412.8827    55.598075    300.23451 
   68410   0.95945143   -9411.6122   -16.128793    300.92365 
   68420   0.95933172   -9410.3201     -78.2757    297.86581 
   68430   0.95929538   -9409.0076   -58.533305    298.02339 
   68440   0.95931525   -9407.7646    87.839236    297.20497 
   68450   0.95923843   -9406.5848    155.04428    297.67544 
   68460   0.95899039   -9405.4465    78.337984     297.7301 
   68470    0.9586385   -9404.2671   -10.869017     295.9965 
   68480   0.95829449   -9402.9809   -123.50975    297.00088 
   68490   0.95806886   -9401.4579   -72.973467    297.19526 
   68500    0.9579196    -9400.043    82.117301    296.60984 
   68510   0.95765608   -9398.8241    292.60565    292.15195 
   68520   0.95705436   -9397.5905    273.30772    291.86892 
   68530   0.95612762   -9396.2464    25.202026    292.74352 
   68540   0.95514209   -9394.2488   -146.01449    290.88661 
   68550   0.95430461   -9392.0045   -274.15653    294.60055 
   68560   0.95378099   -9389.4001   -456.88441    300.89037 
   68570   0.95378035    -9386.544   -505.91222    302.89652 
   68580   0.95436445   -9383.9632   -273.28815    300.51764 
   68590   0.95529923    -9381.873   -33.436978    301.18674 
   68600   0.95629358   -9379.7736    186.08351    300.31224 
   68610   0.95710104   -9377.7731    292.83932    297.65532 
   68620   0.95759693   -9375.7765    208.45942    299.26434 
   68630   0.95786598   -9373.7193    39.900354    302.30657 
   68640   0.95808361   -9371.4791   -45.023067    305.40671 
   68650   0.95834562   -9369.4325    19.902952    304.74036 
   68660   0.95858719   -9367.6804    125.06073    302.99998 
   68670   0.95868921   -9365.9349    160.30096    299.73068 
   68680   0.95862798   -9364.3042   -45.210509    304.97539 
   68690   0.95859511   -9362.5945    -108.9883    307.58237 
   68700   0.95866638   -9361.2556    81.932712    299.54195 
   68710   0.95867654   -9360.0053    52.643364    301.17023 
   68720   0.95862461   -9358.4788    11.341755    300.02157 
   68730    0.9585673   -9356.8825   -49.701678    302.03713 
   68740    0.9585678   -9355.3011    -143.8322     305.3468 
   68750   0.95873007   -9353.7089   -123.25378    304.44028 
   68760    0.9590328   -9352.2549    68.275704    299.38076 
   68770   0.95927978   -9350.8991    138.81689    300.07039 
   68780   0.95937248   -9349.4282    100.79029    299.78877 
   68790   0.95935184   -9347.8915   -8.2835427    301.43798 
   68800   0.95933232   -9346.1404   -49.206132     305.1506 
   68810   0.95935415   -9344.1286    42.172827     302.2455 
   68820   0.95934932   -9342.1763   -2.6559101     300.1465 
   68830   0.95935476   -9339.9155   -120.44034    302.59268 
   68840   0.95948831   -9337.3027   -121.97599    304.98773 
   68850   0.95976577   -9334.6359   -18.005303    303.55039 
   68860   0.96009069   -9331.9521   -11.691495    307.07897 
   68870    0.9604489    -9329.063   -67.416462    309.36455 
   68880   0.96089029   -9326.3102   -24.532603    312.89244 
   68890    0.9613564   -9323.6534    212.99985    309.50527 
   68900    0.9616066   -9321.3062    271.94406    308.40228 
   68910   0.96155607   -9319.2845    154.28135    309.01403 
   68920   0.96131829   -9317.4746    25.376502    307.17235 
   68930   0.96103088   -9315.5962   -3.5389644    305.37975 
   68940   0.96073104   -9313.9781    37.332972    305.84585 
   68950   0.96037515   -9312.4584    3.1661572    310.83216 
   68960   0.95999733   -9311.1331   -68.514025    315.48784 
   68970   0.95965043   -9310.1276    160.29566    307.50912 
   68980   0.95912062   -9309.8623    222.35476    305.54955 
   68990   0.95831714   -9309.7428     66.92982    305.45145 
   69000     0.957403   -9309.6653   -132.34853    305.15669 
   69010   0.95659996   -9309.7313   -256.85303     307.6073 
   69020   0.95606411   -9309.8161   -298.09542    304.17255 
   69030   0.95588511   -9310.0476   -403.00959    306.88444 
   69040   0.95616222   -9310.4508   -245.82232    303.08133 
   69050   0.95675271   -9311.6597   -14.106091     301.5527 
   69060   0.95737846   -9312.8999    259.39882    296.50967 
   69070   0.95773768   -9314.2739    348.12133    292.01546 
   69080    0.9577389   -9315.6658    -14.28537    302.14081 
   69090   0.95772098   -9316.8667   -185.09353    306.33757 
   69100    0.9579068     -9318.34   -124.96331    302.92747 
   69110    0.9582644   -9319.9951   -132.43185      301.855 
   69120   0.95881135   -9321.8296   -230.50101    304.73998 
   69130   0.95964753   -9323.9655    -183.3618     308.5698 
   69140   0.96072024   -9326.4357    51.368649    306.48257 
   69150   0.96177538   -9329.5823    263.34381    305.80642 
   69160   0.96254612   -9332.7702    459.95195    298.68936 
   69170   0.96283803   -9336.2933    241.18517    301.85787 
   69180   0.96284323   -9339.7986     8.944449    305.11838 
   69190   0.96282281   -9343.2002   -60.913535    302.68858 
   69200   0.96288878   -9347.0789   -233.42744    309.70603 
   69210   0.96320137   -9350.9325   -125.63967    307.78633 
   69220   0.96367668   -9355.4752    44.942306    310.65145 
   69230   0.96409855   -9360.2662    311.51763    303.04265 
   69240   0.96421509   -9365.3258    163.44782    303.03264 
   69250   0.96414362   -9370.3777   -121.17282    309.67977 
   69260   0.96417468   -9375.2923   -74.977783    305.95687 
   69270   0.96430391   -9380.4866   -25.964115    308.58427 
   69280   0.96445779   -9385.6848    103.46851    306.05053 
   69290    0.9644941   -9390.7946    247.28319    297.55686 
   69300   0.96425679   -9396.0408    164.69369     301.3709 
   69310   0.96379637   -9400.7443      136.832    299.46423 
   69320   0.96315764   -9405.3617    125.42328    296.22929 
   69330    0.9623563   -9409.5315    2.5211543    297.74486 
   69340   0.96152504   -9413.3022   -114.35892    297.89247 
   69350   0.96079489   -9416.4783   -129.89339    293.24173 
   69360   0.96022223   -9419.4554   -286.03183    297.60126 
   69370   0.95995188   -9421.7992   -260.83682    295.39374 
   69380   0.96000511   -9424.1553   -321.49806    299.63555 
   69390   0.96042729   -9426.4983   -266.13467    302.83834 
   69400   0.96117987    -9428.897   -109.78933    303.80322 
   69410   0.96207664   -9431.3646    141.23384    300.57483 
   69420   0.96284773   -9434.0713    308.25196    297.83298 
   69430   0.96327537    -9436.775    395.07564      295.931 
   69440   0.96324955   -9439.5339    360.78221    295.76944 
   69450   0.96278834   -9441.9522    247.21403    292.57228 
   69460   0.96203168   -9443.9671   -1.9224354    293.50712 
   69470   0.96123547   -9445.6672   -110.44655    295.40433 
   69480   0.96052826   -9447.1101   -28.030326    294.99144 
   69490   0.95983389   -9448.5794     59.69304    290.86568 
   69500   0.95907066   -9449.8033   -43.272975    289.54656 
   69510   0.95835466   -9450.4059   -267.44857      289.416 
   69520   0.95795004   -9450.6139   -504.77233    295.07908 
   69530   0.95810882   -9450.7318   -444.08869    297.92236 
   69540   0.95878943   -9450.9313   -179.69252    293.05078 
   69550    0.9597387   -9451.3403   -133.72686    295.40682 
   69560   0.96087379   -9451.7678   -39.336835    297.73453 
   69570   0.96206736    -9452.177    257.71744    293.96515 
   69580   0.96300808   -9452.5465    354.32878    295.67392 
   69590   0.96355582   -9452.8039    299.60769    296.51841 
   69600   0.96375929   -9452.9934    218.29184    295.36347 
   69610   0.96370834   -9453.1722     114.7337    298.38962 
   69620   0.96350006   -9453.1547    115.57765    292.86692 
   69630   0.96316968   -9453.0408   -47.472013    294.15302 
   69640   0.96286392   -9452.7366   -57.182179    298.74231 
   69650   0.96257951   -9452.3292    239.00065    291.84308 
   69660   0.96205394   -9452.1194    116.97127    290.85161 
   69670    0.9614058   -9451.3362   -388.06134    301.60736 
   69680   0.96116711   -9450.1459   -560.14771    301.92643 
   69690   0.96157086   -9449.3664   -389.26281    303.09347 
   69700    0.9624298   -9449.0171    52.084173    301.72683 
   69710   0.96325121   -9448.8075    550.30962    288.40059 
   69720   0.96349865   -9448.8577    527.31028    289.11591 
   69730   0.96313123   -9448.5599     226.6054    296.90157 
   69740   0.96246845   -9447.7821   -24.828196    297.92261 
   69750   0.96180687    -9446.746   -183.58474    297.58544 
   69760   0.96132833   -9445.5331   -192.14314    298.25267 
   69770   0.96105271   -9444.3107   -67.677181    295.10279 
   69780   0.96087042    -9443.142    -89.42551    294.66978 
   69790   0.96080117   -9441.7168   -241.12338    300.92731 
   69800   0.96098243   -9440.3137   -101.57911    298.54901 
   69810    0.9613038    -9438.883    8.1599517    298.51641 
   69820   0.96162758   -9437.5869    83.384753    303.62861 
   69830   0.96184213   -9436.2376    308.34797     293.8061 
   69840   0.96175302   -9435.1163      110.718    292.74542 
   69850    0.9615393     -9433.47   -255.02486    302.99278 
   69860   0.96157792   -9431.5911   -231.02965    301.38918 
   69870   0.96188873   -9429.8262   -57.117956    299.48833 
   69880   0.96228694   -9428.2011    91.301046    298.52942 
   69890   0.96260088    -9426.521    164.76636    296.81476 
   69900    0.9627432   -9424.7202    78.862085    300.30703 
   69910    0.9627977   -9422.7554   -53.079111    301.75342 
   69920     0.962911   -9420.8011   -119.04385    305.44455 
   69930   0.96314687   -9418.8619    53.928341    300.47328 
   69940   0.96334477   -9417.1841    138.89894    297.83037 
   69950   0.96339187   -9415.3953     95.67983    300.02808 
   69960   0.96331971   -9413.4431    75.022823    301.64859 
   69970   0.96314621   -9411.4629    118.58902    298.91952 
   69980   0.96282227    -9409.481    195.34824    292.78325 
   69990   0.96227754   -9407.3569    58.826578    294.80554 
   70000    0.9616374   -9404.8139   -128.16655    297.94768 
   70010   0.96112444   -9401.7973   -270.69061    299.26719 
   70020   0.96091365   -9398.6756    -317.1134    303.60207 
   70030   0.96105168   -9395.4712    -129.8218    301.68894 
   70040   0.96137174   -9392.5832   -79.388711    306.38718 
   70050    0.9617795   -9389.6411    53.112351    305.22622 
   70060   0.96214754   -9386.9893    121.44849    305.52923 
   70070   0.96238534   -9384.3588    106.50519    309.69226 
   70080   0.96249356   -9381.9365    162.33364    305.15079 
   70090   0.96243242    -9379.848    75.181762    306.07913 
   70100   0.96226214   -9377.8759    94.929769    307.49427 
   70110   0.96196532   -9376.0384    180.70566    306.63666 
   70120   0.96144388   -9374.5467    198.93672    304.47231 
   70130   0.96069016   -9373.1781    5.3945246    301.99547 
   70140   0.95990777   -9371.5977   -187.00144    301.18421 
   70150   0.95930437   -9369.7978   -138.93976    297.55256 
   70160    0.9588609   -9368.2795   -129.71115    299.03916 
   70170    0.9585544   -9366.5083   -77.399564    296.37857 
   70180   0.95834237   -9364.8302   -104.07435    299.41851 
   70190   0.95823506   -9363.0335   -17.479792    298.41931 
   70200   0.95815168   -9361.0209    10.064459    298.19293 
   70210   0.95808024   -9359.2156   -240.30301    306.15558 
   70220   0.95825995   -9357.0632   -213.61665    304.51644 
   70230   0.95868163   -9355.2139    113.60878    297.06196 
   70240   0.95900077   -9353.7222    298.15165     297.9606 
   70250   0.95898683   -9352.1305    255.29633    301.15579 
   70260    0.9586612   -9350.4344    170.86985    300.75569 
   70270   0.95811825   -9348.6433    109.62042    296.68875 
   70280   0.95744284   -9346.7388   -47.348352    298.51966 
   70290   0.95679624    -9344.266   -123.21321    296.95327 
   70300    0.9562897   -9341.6513   -219.78168    297.69777 
   70310   0.95602155   -9338.8229   -241.85895    301.42905 
   70320    0.9560205   -9336.0652   -175.14922    304.23963 
   70330   0.95624016   -9333.4032   -177.72491    304.96258 
   70340   0.95667565   -9330.7524   -96.076353    301.20865 
   70350   0.95726171   -9328.3516   -128.04478    307.87296 
   70360   0.95800087   -9325.8688   -35.557371    305.99676 
   70370   0.95882192   -9323.7875    9.8634755    307.34644 
   70380   0.95964185   -9321.9763    159.14533    310.18205 
   70390   0.96027354   -9320.4051    455.15203    304.43532 
   70400   0.96041084   -9319.2755    433.49572    304.91652 
   70410   0.96003405   -9318.2419    273.54962    308.03871 
   70420   0.95931129   -9317.3478    122.95942    307.53981 
   70430   0.95842606   -9316.5698   -72.898784    306.25877 
   70440   0.95759471    -9315.634   -169.44714    301.71614 
   70450   0.95694867   -9314.9854   -292.21533    310.51923 
   70460   0.95657299   -9314.5469    38.129402    306.71581 
   70470   0.95614784   -9314.6568     400.5967    292.72951 
   70480   0.95529177    -9315.083    192.91649    298.23655 
   70490   0.95416872   -9315.0107    -117.6334     303.9062 
   70500   0.95314051   -9314.7571   -296.05311    304.56145 
   70510   0.95242183   -9314.5976   -276.56846    305.11114 
   70520   0.95200931   -9314.6585   -165.22915    303.94877 
   70530   0.95179355   -9315.0621   -137.11676    302.31399 
   70540   0.95174014   -9315.5934   -131.27182    301.65713 
   70550   0.95185031   -9316.3502   -153.39915    303.99557 
   70560   0.95213876   -9317.4621   -84.546278    306.79222 
   70570   0.95253299   -9319.0812    23.529136    307.10787 
   70580   0.95291118   -9320.8583    152.79133    298.75499 
   70590   0.95315024   -9322.9341    49.889201    299.46835 
   70600    0.9533306   -9325.2227   -70.239851    305.45328 
   70610   0.95357942    -9327.719    24.592527    301.36217 
   70620   0.95382863   -9330.5286    19.251618    298.57042 
   70630   0.95408177   -9333.6459   -134.00865    306.34282 
   70640   0.95447472   -9337.0651   -51.077463    306.95371 
   70650   0.95494504   -9341.1774    63.633667    308.58345 
   70660   0.95534443   -9345.8885    246.57079     303.6377 
   70670    0.9554733   -9350.7187    353.26944    295.58409 
   70680   0.95521134   -9355.7387    185.27995    295.45241 
   70690   0.95471496   -9360.5474   -61.875814    298.47452 
   70700    0.9542581   -9365.1542    -219.4182    298.06435 
   70710   0.95404787   -9369.5561   -301.04451    294.80539 
   70720   0.95420564   -9374.0192   -429.45356    301.28738 
   70730     0.954866   -9378.5147   -368.37324    304.40361 
   70740   0.95598738   -9383.3072   -111.08676    300.01921 
   70750   0.95730742   -9387.8849    93.514799    295.85229 
   70760   0.95859614   -9392.4877    109.95811    298.40303 
   70770    0.9597941   -9396.8871      189.904    301.62618 
   70780    0.9608054   -9401.2178    277.76971    303.09873 
   70790   0.96153167   -9405.6515    276.64403     302.0554 
   70800   0.96193459    -9409.719    404.49867    294.55738 
   70810   0.96188651   -9413.7821    328.92827    299.26564 
   70820   0.96143222   -9417.5297    173.68507    297.99456 
   70830   0.96077441   -9420.7125   -154.40314    299.22681 
   70840    0.9602695   -9423.7424   -404.19891    307.85446 
   70850   0.96018202   -9426.6463   -199.71165    301.58995 
   70860   0.96034693   -9429.4449   -5.1425395    292.26224 
   70870   0.96057242   -9432.2682   -164.92296    295.95767 
   70880   0.96098291   -9434.4565   -174.07547    297.37879 
   70890   0.96160192   -9436.7739    2.1280217    300.96476 
   70900   0.96222183   -9439.1564    306.47573      298.904 
   70910   0.96251897   -9441.6138     411.8654    297.06317 
   70920   0.96234735   -9444.0279    300.45867    298.63056 
   70930   0.96180625   -9446.2828    124.28969    298.27125 
   70940   0.96109129   -9448.1232   -41.523297     296.6255 
   70950   0.96039569    -9449.906   -134.62166    298.09859 
   70960   0.95981052   -9451.3336     9.520201    290.60124 
   70970   0.95921735   -9452.6902    25.701562    287.25003 
   70980   0.95858197   -9453.6181   -105.97899    287.66677 
   70990   0.95806314   -9454.0727   -318.28038    291.15176 
   71000   0.95789483   -9454.1682   -356.00188    290.95453 
   71010   0.95815003   -9454.0308   -256.53806    287.58099 
   71020   0.95873939   -9454.0194   -272.91626    298.94388 
   71030   0.95963139   -9453.9008    60.201335    297.51573 
   71040    0.9604859   -9453.9398    409.14604    292.47324 
   71050   0.96091407   -9454.0628    393.82978    295.22918 
   71060   0.96087575   -9453.9694     318.9134    291.67319 
   71070   0.96046115   -9453.8138    154.13536    290.63561 
   71080   0.95985182    -9453.215   -36.154833     289.3692 
   71090   0.95926011   -9452.1676   -131.13519    286.54345 
   71100    0.9588043   -9450.7342    -152.2625    288.39564 
   71110   0.95850085   -9449.3312   -39.541197    292.22961 
   71120   0.95821975   -9447.5225    170.24105    286.55569 
   71130   0.95777516   -9445.8267    25.771133    290.08348 
   71140   0.95727077   -9443.6298   -43.181581    292.24953 
   71150   0.95678446   -9441.1082    76.425655    286.95973 
   71160   0.95622242    -9438.608   -73.260644     295.0924 
   71170   0.95571243    -9435.534   -179.31347    296.21705 
   71180   0.95541522   -9432.4108   -306.25982     296.2145 
   71190   0.95547161   -9428.9931   -307.00373    290.86293 
   71200   0.95592561   -9425.6428   -382.97638    295.45569 
   71210   0.95682268   -9422.3813   -236.98105    302.05579 
   71220   0.95801504   -9419.3064    56.292137    298.07285 
   71230   0.95919775   -9416.5334    153.32371     296.8695 
   71240   0.96023093   -9413.6628    222.85211    294.62192 
   71250   0.96102719   -9410.8439    259.77657    295.20844 
   71260   0.96153333   -9407.8609     242.8483    296.81153 
   71270    0.9617632   -9405.0209    172.34941    298.44609 
   71280   0.96179653   -9402.1142    31.747193    303.74788 
   71290   0.96177593   -9399.3948    5.7699462    304.01248 
   71300   0.96173824   -9396.8508    80.964304    299.56971 
   71310   0.96161114   -9394.6726     112.7386    296.88595 
   71320   0.96136126   -9392.4865    24.024403    300.25645 
   71330    0.9610591   -9390.2017    32.650646    298.03395 
   71340    0.9607243   -9388.3532   -67.470233    301.91006 
   71350    0.9604504   -9386.3539    -158.9597     305.6391 
   71360   0.96034809   -9384.5792   -115.44993    304.04119 
   71370   0.96038766    -9383.204   -28.227882    302.37359 
   71380    0.9604546   -9381.9197    148.40531    298.37735 
   71390   0.96035889   -9381.0305    205.06479    299.11642 
   71400   0.96001989   -9380.1559    100.27301     302.9009 
   71410   0.95954745   -9379.4666   -53.343888    308.70102 
   71420   0.95909942   -9378.7487    -41.94621     302.6651 
   71430   0.95871822   -9378.3253   -171.38823     301.5854 
   71440   0.95852021   -9377.8505   -205.62323    302.24554 
   71450    0.9585531   -9377.5058   -121.33258    301.44873 
   71460   0.95873698   -9377.4684    -41.08293    304.09902 
   71470   0.95896339    -9377.672    134.76453    301.36889 
   71480   0.95905622   -9378.0693    164.54624     296.5439 
   71490   0.95897018   -9378.3336    32.288468    299.03744 
   71500   0.95882412   -9378.5697     31.45756    301.27371 
   71510   0.95862361   -9379.0074    138.88002    300.23672 
   71520    0.9582576   -9379.6198    161.11696    295.77866 
   71530    0.9577056   -9380.0352   -7.1415779    294.19333 
   71540   0.95713308    -9380.146   -125.77612    291.86558 
   71550   0.95668654   -9379.9634   -212.40229     295.7811 
   71560   0.95648306   -9379.8212   -358.68075    303.11625 
   71570   0.95668769   -9379.4823   -324.86325    300.01379 
   71580   0.95729298   -9379.4431   -186.37486    297.58526 
   71590   0.95814508   -9379.6081    30.359773    295.44032 
   71600   0.95900646   -9379.6637    167.11817    294.26914 
   71610   0.95972633   -9379.9241    40.926456    304.40426 
   71620   0.96037853   -9380.0009    225.10285    299.69874 
   71630   0.96079451   -9380.4395    418.03374     294.6689 
   71640   0.96073625   -9380.9927    413.91316    295.04144 
   71650   0.96018436   -9381.4332    262.66856    291.70371 
   71660   0.95930235   -9381.4945   -10.077888    297.11901 
   71670   0.95837342   -9381.2206   -108.19503    299.67494 
   71680   0.95753025   -9380.9044   -77.467108    297.05454 
   71690   0.95675188   -9380.7754   -59.077182    299.90861 
   71700   0.95600622   -9380.6595    29.210796    297.38329 
   71710     0.955213   -9380.5714    2.2793994    294.68961 
   71720   0.95440977   -9380.3964   -202.54362    296.39457 
   71730   0.95380978   -9379.9369   -307.20729    301.01619 
   71740   0.95353302   -9379.3918   -152.88717    300.57716 
   71750   0.95343238   -9379.2437    34.728281    296.95696 
   71760   0.95330541   -9378.9543    65.239468      293.486 
   71770   0.95312303    -9378.861   -135.25874    299.02399 
   71780   0.95306763   -9378.4391   -117.75946    295.35432 
   71790   0.95315831   -9378.0222   -54.965881    290.61873 
   71800   0.95333139   -9377.4573    -110.6574    292.54895 
   71810   0.95363557   -9376.7429   -123.13893    296.01295 
   71820   0.95408621   -9375.8186    10.804704    294.47203 
   71830   0.95454403    -9374.899    176.84379    288.39278 
   71840   0.95484081   -9373.9691    46.295674    295.02764 
   71850   0.95507466   -9372.7808   -41.105769    297.84772 
   71860   0.95536441   -9371.5249   -49.701715    295.87909 
   71870   0.95571257    -9370.423    31.332076    299.25806 
   71880   0.95601659   -9369.4147    254.56571    299.15777 
   71890   0.95603569   -9368.4013    371.97949    291.00088 
   71900    0.9556567   -9367.4932    95.692195    296.30392 
   71910     0.955118    -9366.067   -12.642352    295.64352 
   71920   0.95458158   -9364.5647   -77.706981    293.24146 
   71930   0.95412192   -9362.8294   -164.55731    295.93577 
   71940   0.95383342   -9360.8318   -192.94424    295.76236 
   71950   0.95377576   -9358.6598   -245.60271    296.54806 
   71960   0.95402035   -9356.4953   -326.28578    301.14782 
   71970   0.95465595   -9354.4368   -280.50229    304.40852 
   71980   0.95563482   -9352.5584   -52.852535    304.45416 
   71990   0.95669963   -9350.8729    279.79329     301.6972 
   72000   0.95747679   -9349.4037      472.488    300.06704 
   72010   0.95773264   -9348.0406    417.57025     301.3349 
   72020   0.95748679    -9346.736     335.4319    300.99245 
   72030   0.95682302   -9345.3172    286.84164     298.0062 
   72040   0.95580949   -9343.6962    104.38278    297.52043 
   72050   0.95465602   -9341.5962   -209.74441    302.61032 
   72060   0.95370166   -9338.9866   -379.88712    305.29903 
   72070   0.95315844   -9335.9553   -371.03478    306.93339 
   72080   0.95303634   -9332.7136   -226.06664    302.90261 
   72090   0.95320429   -9329.4898    -180.5703    305.32406 
   72100   0.95358712   -9325.8415   -108.73469     309.4209 
   72110   0.95411515   -9321.7914   -41.398324    308.40904 
   72120   0.95471557   -9317.4699   -11.257761    307.88269 
   72130   0.95535011   -9312.8763    6.0795601    313.18937 
   72140   0.95597021    -9307.935    214.84343     309.1002 
   72150   0.95636711    -9302.951     304.3468    306.04367 
   72160   0.95642722   -9297.5776    210.32693    305.84504 
   72170   0.95623582   -9291.8096    89.370456    306.19474 
   72180   0.95593183   -9286.0801   -65.242881    313.61926 
   72190   0.95567805   -9279.9984   -101.54092     314.6266 
   72200   0.95552839     -9274.46    20.108256    310.45577 
   72210   0.95534535   -9269.3659    237.69499    304.13482 
   72220   0.95490018   -9264.7442    208.37866    304.90414 
   72230   0.95421452   -9260.2989   -72.104615    312.68522 
   72240   0.95355984   -9255.9187   -122.96598    309.04872 
   72250   0.95304511   -9252.0272   -178.39513    309.85879 
   72260   0.95272737   -9248.3064   -230.16473    310.15555 
   72270   0.95267426   -9245.1996   -231.24433    314.81631 
   72280   0.95287697   -9242.5957   -47.556894    312.76249 
   72290   0.95315225   -9240.5705    108.32764    309.48814 
   72300   0.95332515   -9239.1191    72.603675    312.47226 
   72310     0.953412   -9238.1008    36.374708    312.79168 
   72320   0.95344805   -9237.5448    111.03644    306.88375 
   72330   0.95338936   -9237.2579   -63.806502    305.42973 
   72340   0.95342438   -9236.9492   -397.21024     313.5553 
   72350     0.953902   -9237.1213    -405.0213    318.09883 
   72360   0.95484857   -9237.9207   -14.447201    310.12238 
   72370    0.9558715   -9239.3656    224.32485    310.05776 
   72380   0.95665491   -9241.5003    403.39831    310.99781 
   72390   0.95697324   -9243.9809    567.20528    305.04739 
   72400   0.95665188   -9246.9497    408.37132    304.27575 
   72410   0.95584366   -9249.9448    48.744707    304.88869 
   72420    0.9549395   -9252.7976   -261.64817    309.88532 
   72430   0.95428811   -9255.7862   -297.07108    310.36728 
   72440   0.95395932   -9259.0268   -148.26969    302.24979 
   72450   0.95382438   -9262.4528   -155.60769    301.89276 
   72460   0.95388694   -9266.0633   -315.78081    308.39229 
   72470   0.95431826   -9269.9119   -346.94998    310.18788 
   72480   0.95517465   -9274.3549   -226.90134    313.67864 
   72490   0.95632014   -9279.2721    48.181889    312.10205 
   72500   0.95745545   -9284.4688    264.23021    312.47155 
   72510   0.95832906   -9290.1697    287.88966    313.98491 
   72520   0.95888846   -9295.9786    255.62054    308.15172 
   72530   0.95917155   -9301.9124    151.76688    308.92704 
   72540   0.95926249   -9307.5806    161.96299    303.62306 
   72550   0.95918682   -9313.0145    24.416988     303.0239 
   72560   0.95906308   -9318.0034    -11.88584    302.66083 
   72570    0.9589356   -9322.7617     97.54383    296.18131 
   72580   0.95870354   -9327.2431    80.596506      295.728 
   72590   0.95837189   -9331.0922   -40.713784    293.76556 
   72600    0.9580961   -9334.3917   -294.09408    298.87969 
   72610   0.95814328   -9337.3238   -365.09839    304.86484 
   72620   0.95861063   -9340.2905   -200.19416    304.71856 
   72630   0.95933049   -9343.1178    69.218181    299.95003 
   72640   0.96002152    -9346.224     131.7282    301.96174 
   72650   0.96057989   -9349.1803    139.27925    302.81791 
   72660   0.96099041   -9352.0554    134.94598    304.28119 
   72670   0.96124558   -9355.0184    123.59436    305.84729 
   72680   0.96135205   -9358.0769    156.39969    302.35873 
   72690   0.96127847   -9361.0906    177.35842      298.591 
   72700   0.96099462   -9364.1373    129.10821    299.77799 
   72710   0.96055269   -9367.0031   -25.362903    299.97045 
   72720   0.96013499   -9369.4849   -229.16375    299.89224 
   72730   0.95996181   -9371.7939   -277.58244     301.9962 
   72740   0.96010318   -9374.1897   -161.43627    302.49022 
   72750   0.96044058   -9376.6329    17.406249    300.44278 
   72760    0.9607706   -9379.3145    209.44514    296.82653 
   72770   0.96086898   -9381.9819    306.84455    293.11335 
   72780   0.96062613    -9384.419    141.83585     292.9771 
   72790   0.96021491   -9386.6074   -154.65447    298.46962 
   72800   0.95995277   -9388.4199   -254.53691    298.04226 
   72810    0.9599816   -9390.2178   -217.25338    298.17263 
   72820   0.96026781    -9392.056   -107.00952    299.10189 
   72830   0.96069126   -9394.0118    3.2944277    299.07584 
   72840   0.96112975   -9395.9249     70.72268    298.56027 
   72850   0.96150955   -9397.8663    18.300986    300.91179 
   72860   0.96188384   -9399.7823   -57.007443    301.47633 
   72870   0.96234334   -9401.8491   -133.93138    303.45344 
   72880   0.96297346   -9403.9758   -153.58643    304.68666 
   72890   0.96381214   -9406.2865   -149.54618    305.26569 
   72900   0.96484523   -9408.9132    9.9848002    302.03217 
   72910   0.96589393   -9411.7904    284.19479    302.24384 
   72920   0.96662551   -9414.8666    527.43725    303.12068 
   72930    0.9667613   -9418.1773    529.34091    299.41156 
   72940   0.96628986   -9421.6011     285.4282    300.33467 
   72950   0.96544924   -9424.8406     126.6592    297.06671 
   72960   0.96444258   -9427.8938   -83.960957    298.09913 
   72970   0.96349955   -9430.7824   -245.97313    301.12944 
   72980   0.96281161   -9433.3212   -227.06076    296.70114 
   72990   0.96238349   -9435.8823   -155.25504    294.87117 
   73000   0.96212038   -9438.2589   -9.3466494    290.80979 
   73010   0.96188913    -9440.797   -87.248467    297.84146 
   73020   0.96172842   -9442.9918   -54.387244    296.39824 
   73030   0.96164576   -9445.3506   -88.140826    297.62347 
   73040    0.9616482   -9447.4915    6.5919039    292.59345 
   73050   0.96166175   -9449.4952    48.370289    289.04547 
   73060   0.96161606   -9451.2552    68.299593    292.71003 
   73070   0.96148253   -9452.9198    117.40361    289.89921 
   73080   0.96122002   -9454.1899    30.354221    290.72458 
   73090   0.96090635   -9455.3288   -43.943145    293.05085 
   73100    0.9606186   -9456.1398    47.794689    288.08608 
   73110    0.9602814    -9456.704     18.92956    289.57177 
   73120   0.95991147   -9457.2073   -101.61136    295.61667 
   73130    0.9596386   -9457.3759   -122.93115    295.03609 
   73140   0.95950213   -9457.5614   -87.471978    294.00444 
   73150   0.95946475   -9457.5878   -29.427495    291.29245 
   73160    0.9594792   -9457.3897   -141.79802    295.59052 
   73170   0.95966261   -9457.0789   -251.55332    295.79407 
   73180    0.9601431   -9456.7617   -167.55485     293.5515 
   73190   0.96083584   -9456.2715    35.883153    291.05138 
   73200   0.96152366   -9455.5846    168.33083     290.6093 
   73210   0.96204393   -9454.9627    170.40897    293.32091 
   73220   0.96237931   -9454.1364    101.31133    296.45963 
   73230   0.96260712   -9453.0939   0.36020746    299.68926 
   73240   0.96282007   -9451.9919    35.585695    299.85104 
   73250    0.9629826   -9451.0765    203.12812    295.38739 
   73260    0.9629281   -9450.1033    196.25036    291.46353 
   73270   0.96266051   -9449.0351   -37.986648    296.19363 
   73280   0.96240041   -9447.4495   -63.859152    295.24867 
   73290   0.96220622   -9445.7084     -2.22577    290.71921 
   73300   0.96201432   -9443.7824    41.255325    287.38548 
   73310   0.96177261   -9441.6823    20.869484    289.36781 
   73320   0.96149119   -9438.9865    49.988813    285.78507 
   73330   0.96115477   -9435.9497   -34.731281    284.43821 
   73340   0.96086941   -9432.1819   -285.36057    290.54121 
   73350   0.96090137    -9427.786   -398.09079    295.53038 
   73360     0.961394   -9423.1193   -294.95125    299.31862 
   73370   0.96225373   -9418.5224   -93.290517    297.13184 
   73380   0.96326574   -9413.8789    89.420162    298.91866 
   73390   0.96420363   -9409.1415    292.79217    299.67963 
   73400   0.96484293   -9404.5225    311.79325    303.91598 
   73410   0.96512004   -9400.0317    343.06048    301.85336 
   73420   0.96500354   -9395.8249    302.93857    298.53044 
   73430    0.9645291   -9391.7599    123.01904    300.41649 
   73440   0.96388422   -9387.5619    -70.86493    302.82356 
   73450   0.96329472    -9383.423   -224.82865    307.67313 
   73460   0.96293134   -9379.2526    -175.7277    305.73549 
   73470    0.9627759   -9375.8433   -163.40601    310.64476 
   73480   0.96278048   -9372.8166    92.275317    304.64185 
   73490   0.96270307   -9370.3957      179.983    299.08319 
   73500   0.96244308   -9368.4108   -100.14932    310.59863 
   73510   0.96223808   -9366.3611   -26.575755     310.3637 
   73520   0.96206094   -9364.8431    98.443004    306.46956 
   73530   0.96177414   -9363.7835    107.42247    304.72948 
   73540   0.96133953   -9363.2595     187.1257    301.06676 
   73550   0.96066726   -9362.8736    225.60516     297.9081 
   73560   0.95971697    -9362.775    76.697188    300.94383 
   73570   0.95861866   -9362.5098    19.634122    299.90591 
   73580   0.95746133   -9362.1101   -31.891947    294.92191 
   73590   0.95633138   -9361.6629     -288.321    299.61435 
   73600   0.95550049   -9360.6857   -483.73629    302.57564 
   73610    0.9552087   -9360.0394   -495.50302    308.19346 
   73620   0.95546478    -9359.792   -121.50916    303.60123 
   73630   0.95589662   -9360.0494    189.70939    299.30084 
   73640   0.95614211   -9360.4894     215.7882    299.62261 
   73650   0.95614796   -9360.9985    71.268792    299.52701 
   73660   0.95605724   -9361.4576   -8.7578481    299.13514 
   73670   0.95596458    -9361.652    36.783736    292.89411 
   73680   0.95585635   -9362.0961   -137.76202    298.34082 
   73690   0.95589213   -9362.1753   -242.32091    305.19446 
   73700   0.95619487   -9362.1767   -100.86498     298.8828 
   73710   0.95665802   -9362.6515   -117.31313     302.5713 
   73720   0.95727194   -9363.2024    -134.5848    308.07517 
   73730   0.95805971   -9363.9723   -20.832826    306.86248 
   73740   0.95888714   -9364.8293     208.4558    301.96254 
   73750   0.95951795   -9366.0588     227.1911    304.56907 
   73760   0.95989307   -9367.3426    195.22006    305.58231 
   73770   0.96004718   -9368.8116    146.10306    302.89916 
   73780   0.96003429   -9370.1844    62.149626     299.7178 
   73790   0.95996732   -9371.6583    -168.6836    303.74914 
   73800   0.96007942   -9373.0198   -241.51864    309.03905 
   73810   0.96044199   -9374.5138    92.400279    301.15978 
   73820    0.9607359   -9376.3677    240.10518    299.89636 
   73830   0.96077291   -9378.3389    104.21874    305.15041 
   73840   0.96066371   -9380.1604     97.60425    303.50502 
   73850   0.96042759   -9382.0105    188.08015     298.7788 
   73860   0.95997406   -9383.8864    119.57694    298.31179 
   73870   0.95937003   -9385.6643   -56.281468    296.83077 
   73880   0.95881661   -9387.0482   -237.16855    298.05564 
   73890   0.95851573   -9388.2412    -263.6661    299.96315 
   73900   0.95850634     -9389.46    -110.9182    297.92443 
   73910   0.95864516   -9390.7921   -39.877802    295.59857 
   73920   0.95884759   -9391.9223    -76.42529    295.75022 
   73930   0.95914834   -9392.9568   -138.71717    298.65344 
   73940   0.95961973   -9393.8059   -104.80288    301.82831 
   73950   0.96022271   -9395.0392    64.825681    301.41642 
   73960   0.96077838   -9396.2044    170.97112     299.7549 
   73970   0.96115534    -9397.598     171.2876    296.85986 
   73980   0.96135827   -9398.9364    7.5343405    300.94737 
   73990   0.96153649   -9400.0515   -38.847133    301.84363 
   74000   0.96176569   -9401.1773   -45.367374    303.55645 
   74010   0.96203751   -9402.3951    95.907187     300.3238 
   74020   0.96221035   -9403.8622    222.38878    298.73556 
   74030   0.96212847   -9405.3138    259.84783    297.77207 
   74040   0.96174325   -9406.8789    151.24998    298.28166 
   74050    0.9611657   -9408.3149   -57.203944    300.13022 
   74060   0.96063255   -9409.3163   -210.85184    300.82838 
   74070   0.96032085   -9410.5122   -189.69538    304.26473 
   74080   0.96020749   -9411.6962    32.817401    300.11462 
   74090   0.96006516   -9413.2297    188.37009     293.2644 
   74100   0.95969783   -9414.7281    233.96547    290.80739 
   74110   0.95904409   -9416.0732    156.57066    289.24048 
   74120   0.95820451   -9416.9591   -166.36267    294.05864 
   74130   0.95753423   -9417.1695   -468.16697    297.26478 
   74140   0.95739274   -9417.1603    -584.7285    297.42708 
   74150   0.95793618   -9417.4442   -477.18362    300.23615 
   74160   0.95905102   -9417.8918   -110.32297    298.26727 
   74170   0.96034787   -9418.5963    215.68001    297.98104 
   74180   0.96142765   -9419.3066    492.58132    295.67319 
   74190   0.96196442   -9420.1503    625.07063    288.47774 
   74200   0.96180806   -9420.9902    343.13357    294.21973 
   74210   0.96121604   -9421.2968    67.936762    300.77766 
   74220   0.96049954   -9421.5336   -43.037489     297.6701 
   74230   0.95983008   -9421.6857   -230.49175    297.39914 
   74240   0.95941671   -9421.3954    -363.9325    295.29083 
   74250   0.95943595   -9421.1296    -486.2801    299.06641 
   74260    0.9600237   -9421.0452   -419.43908    302.63264 
   74270    0.9611125   -9421.1412   -88.929886     298.5325 
   74280   0.96235801    -9421.521    191.81246    297.85662 
   74290   0.96341792    -9421.909    382.22012     299.1855 
   74300    0.9640614   -9422.4418    415.14654    302.91075 
   74310   0.96421631   -9423.0604    419.45556    297.35988 
   74320   0.96389522   -9423.8609    203.90191    298.67564 
   74330   0.96331592    -9424.409   -14.007189    295.72316 
   74340   0.96273855   -9424.7742   -171.64053    291.11405 
   74350   0.96235367   -9424.8268   -343.33182    299.13436 
   74360   0.96232958   -9424.8433   -238.55502    302.54637 
   74370   0.96258374   -9425.0657   -49.126733    301.37976 
   74380   0.96290779   -9425.5435    119.91494    297.46709 
   74390   0.96310424   -9426.1276    281.26119     290.4569 
   74400   0.96297429   -9426.9223    387.69983    288.82894 
   74410   0.96237168   -9427.2363    458.62877    282.48952 
   74420   0.96124311   -9427.4139    113.40072    287.13716 
   74430   0.95993118   -9426.8242   -254.93989    293.17263 
   74440   0.95886184   -9425.4573   -411.24097    292.18774 
   74450   0.95826427   -9423.7163   -511.13771    292.00602 
   74460   0.95825247   -9421.6083    -462.1827    292.49156 
   74470   0.95877789   -9419.3217   -214.66719    292.85919 
   74480   0.95958704   -9416.9696   -22.429939    296.77217 
   74490    0.9604655   -9414.2689    46.165177    297.63357 
   74500   0.96131831   -9411.0341     103.4248     293.0452 
   74510   0.96209768    -9407.533    10.471478    300.64074 
   74520   0.96284978   -9403.3643    166.80895    298.57689 
   74530   0.96344326   -9398.9649    225.64162    298.46477 
   74540   0.96379299   -9394.1107    203.33249    297.00731 
   74550   0.96391614   -9388.6361    132.29313    299.09954 
   74560   0.96387268   -9382.7197    115.87993    302.71896 
   74570   0.96368776   -9376.4764    63.774722    305.66259 
   74580   0.96341659   -9370.1779    17.303665    305.53903 
   74590   0.96311024   -9363.9719    16.468167    305.11911 
   74600   0.96276317   -9358.0072    108.25752    303.18159 
   74610   0.96227253   -9352.4526    191.94989     302.9706 
   74620   0.96154219   -9347.2624    143.65388    306.24388 
   74630   0.96062102   -9342.2893     14.59433    305.15479 
   74640   0.95964483   -9337.6586   -44.138321    300.76177 
   74650   0.95869276   -9333.2244   -93.583901    298.17021 
   74660     0.957846   -9328.9013   -296.85869     302.0616 
   74670   0.95732165   -9324.7299   -419.54651    305.89901 
   74680   0.95726277   -9320.8698   -278.35729     302.6842 
   74690   0.95754172   -9317.7498   -89.320415     303.1333 
   74700    0.9579406   -9315.1034    76.018654    300.80069 
   74710   0.95827534   -9312.7106    151.22105    299.71201 
   74720   0.95843623   -9310.5215    212.58721    298.20556 
   74730   0.95836589   -9308.6193    100.23452    300.65007 
   74740   0.95816603   -9306.6282   -33.804071     302.2839 
   74750   0.95800455      -9304.9   -220.41974     307.7721 
   74760   0.95808911   -9303.2663     -306.235    311.34422 
   74770   0.95853395    -9302.133   -228.22317    310.95287 
   74780    0.9592667   -9301.6719   -48.447467    310.67629 
   74790   0.96007128   -9301.6835    233.48895    308.07042 
   74800   0.96063547   -9302.2398    373.40799    308.01014 
   74810   0.96077338    -9302.939    432.91629    303.57107 
   74820    0.9604073   -9304.1497    371.42784     299.2178 
   74830   0.95961282   -9305.2255     23.51777    306.62481 
   74840   0.95873689   -9306.1574   -177.98384    306.78484 
   74850   0.95805057    -9307.164   -340.10867     309.5603 
   74860   0.95773144   -9308.4085   -322.03979    311.89079 
   74870   0.95777545    -9309.874   -121.84037    303.21036 
   74880   0.95800945    -9311.973   -175.25228    309.06762 
   74890   0.95842057   -9314.1178    28.119372    305.40317 
   74900   0.95884639   -9316.8438   -25.531574    311.41765 
   74910   0.95928443   -9319.5928    57.105849    305.46097 
   74920   0.95970431   -9322.7184    -42.21648    307.13693 
   74930   0.96015458   -9326.0953    57.593964    305.97267 
   74940   0.96054651   -9329.6047    268.88458    301.26334 
   74950   0.96064996   -9333.3555    209.50297    305.88959 
   74960   0.96050125   -9337.1314    65.357514    303.75106 
   74970   0.96028841   -9340.7545   -225.80083    306.34751 
   74980   0.96034157   -9344.4512    -451.5178    312.32349 
   74990   0.96089557   -9348.3185   -264.41336    307.10286 
   75000   0.96179556   -9352.4354   -39.089277    304.23491 
   75010   0.96277708   -9356.7412    74.230219    306.53902 
   75020    0.9637159   -9361.0925     55.43941    309.42992 
   75030   0.96458177   -9365.5311    279.94861    305.62649 
   75040   0.96513513   -9370.0366    530.77411    300.68786 
   75050   0.96509943   -9374.4986    403.69957     301.4419 
   75060   0.96457785    -9378.658    170.19295     302.0916 
   75070   0.96383816   -9382.4917   -60.228579    304.69064 
   75080   0.96313101   -9385.8748   -105.00657     297.7077 
   75090   0.96254508    -9388.849   -163.87337     295.3171 
   75100   0.96213383   -9391.6751   -175.46242    300.89066 
   75110   0.96190776   -9394.3162   -102.02937    301.68891 
   75120   0.96180785   -9396.6727   -118.68643    298.85048 
   75130   0.96187194   -9399.0549   -281.98151    304.52148 
   75140   0.96224589    -9401.342   -200.88595    305.36271 
   75150   0.96286405   -9403.7136   -21.153171    304.84633 
   75160   0.96353594   -9406.2618    35.199456    309.19301 
   75170   0.96417903   -9408.8644    131.22291    307.58161 
   75180   0.96467966   -9411.8382    267.89906    305.23907 
   75190   0.96488137   -9414.7647    341.53245    299.78595 
   75200   0.96469452   -9417.6526     240.5758    301.28145 
   75210   0.96419753   -9420.4852      198.627    302.73235 
   75220    0.9634323   -9423.2172    234.57564     294.3708 
   75230   0.96239173   -9425.8605    66.433568    291.63147 
   75240   0.96125507   -9427.9655   -258.66659    294.64897 
   75250   0.96038702   -9429.4265   -470.27311    297.95951 
   75260   0.96002445   -9430.6816   -346.06931    293.86792 
   75270   0.96009611   -9431.9032   -363.02628    295.14441 
   75280   0.96060268   -9432.9266   -328.71362    291.19098 
   75290   0.96154678   -9433.8873   -375.62886    294.81667 
   75300   0.96295229   -9435.0689   -277.09515    303.13068 
   75310   0.96469315   -9436.4047    206.01836    295.48591 
   75320    0.9662641   -9437.7354    531.01157    291.42007 
   75330   0.96726225   -9439.0805    560.77054    297.87735 
   75340   0.96758092   -9440.1423    702.72221    290.49875 
   75350   0.96710774   -9441.5555    494.95281    290.76449 
   75360   0.96603122   -9442.5859    157.18924    292.21627 
   75370   0.96473095   -9443.1043   -85.615987    289.96126 
   75380   0.96350244   -9443.0789   -304.56307    292.14885 
   75390   0.96260314   -9442.3817   -433.23891    295.67523 
   75400    0.9621896   -9441.7271   -451.73398    302.30441 
   75410   0.96227202   -9441.1131   -160.98934    293.99019 
   75420   0.96259159   -9440.8921   -111.52552    295.51074 
   75430   0.96304581   -9440.4524   -50.845692    297.89525 
   75440   0.96356848   -9440.1141    109.85579    297.71254 
   75450    0.9639815   -9439.8324    242.44326    292.32937 
   75460   0.96413975   -9439.4352    188.98564     291.8987 
   75470   0.96407476   -9438.8312    61.198302    296.91106 
   75480   0.96392207   -9438.0798   -32.449622     301.4426 
   75490    0.9637869   -9437.2287     17.04548    296.52931 
   75500   0.96364734   -9436.5431   -51.591701     297.5214 
   75510   0.96355802   -9435.6501   -73.089181    298.41735 
   75520   0.96354528   -9434.7582    28.271319    295.08717 
   75530    0.9634912   -9433.7351    178.75946    293.45101 
   75540   0.96321835   -9432.9042    276.02361    292.15578 
   75550    0.9626242   -9431.9093     121.1326    293.00497 
   75560    0.9618767   -9430.4131   -181.36503    295.36904 
   75570   0.96129898   -9428.4165   -285.55967    295.39521 
   75580   0.96103461     -9426.27   -228.80291    296.47607 
   75590   0.96103003   -9424.3298    -104.3617    297.66436 
   75600   0.96114039   -9422.2206    101.39486    291.86564 
   75610   0.96116353   -9420.3159    51.301891    294.83452 
   75620   0.96113429    -9417.968   -134.52019     299.5973 
   75630   0.96125525   -9415.2858   -176.80306    292.16675 
   75640   0.96160934   -9412.4968   -231.20399    290.81757 
   75650   0.96225617   -9409.5172   -249.14025    298.68446 
   75660   0.96319836   -9406.2791   -1.8528718      297.432 
   75670   0.96421099   -9403.2173    66.611758    304.50391 
   75680   0.96516286   -9399.9536    225.28977    302.43128 
   75690   0.96590577   -9396.9459    230.19381    297.85166 
   75700   0.96641226   -9393.8716    126.99094    301.09948 
   75710   0.96676083   -9390.6093    196.67925    301.75101 
   75720    0.9668892   -9387.5845    178.78286    302.71107 
   75730   0.96681791   -9384.3579    33.881516     300.7719 
   75740   0.96670901   -9381.1861    -112.1492    300.78164 
   75750   0.96671051   -9377.8375   -40.172328    302.00952 
   75760   0.96674379   -9374.7391    231.73876    296.71419 
   75770   0.96652928   -9371.9276    218.25178    297.56373 
