
variable systemNsize equal 10
variable rndSeed equal 1234
variable Nrun equal 500000
variable Nstab equal 5000
variable NdumpStats equal 10
variable NdumpFrames equal 1000
variable Text equal 298.0
variable Pext equal 1.0

units real
    # g/mol, A, fs, Kcal/mol, K, atm, g/cm^3
atom_style full
read_data SPCE.data
  orthogonal box = (0 0 0) to (3.1 3.1 3.1)
  1 by 2 by 3 MPI processor grid
  reading atoms ...
  3 atoms
  scanning bonds ...
  2 = max bonds/atom
  scanning angles ...
  1 = max angles/atom
  reading bonds ...
  2 bonds
  reading angles ...
  1 angles
  2 = max # of 1-2 neighbors
  1 = max # of 1-3 neighbors
  1 = max # of 1-4 neighbors
  2 = max # of special neighbors
  special bonds CPU = 0.00168395 secs
  read_data CPU = 0.010185 secs

replicate ${systemNsize} ${systemNsize} ${systemNsize}
replicate 10 ${systemNsize} ${systemNsize}
replicate 10 10 ${systemNsize}
replicate 10 10 10
  orthogonal box = (0 0 0) to (31 31 31)
  1 by 2 by 3 MPI processor grid
  3000 atoms
  2000 bonds
  1000 angles
  2 = max # of 1-2 neighbors
  1 = max # of 1-3 neighbors
  1 = max # of 1-4 neighbors
  2 = max # of special neighbors
  special bonds CPU = 0.000720024 secs
  replicate CPU = 0.00515318 secs

include SPCE.long
# Original model from Berendsen et al, J Phys Chem 91:6269 (1987)
# Charges and geometry are specified in the ".data" file.

mass 1 1.00794 # H
mass 2 15.9994 # O

pair_style lj/cut/coul/long 10.0
    # LJ_Rcut (Coul_Rcut)
pair_modify tail yes
    # assumtions and approximations:
    # 1) 3d bulk homogeneous liquid (+)
    # 2) RDF is unity beyond the cutoff
    # 3) It's computed at the begining of the run
    # 4) atoms don't feel additional energy but it's added to the PE etc
kspace_style pppm 1.0e-5
    # accuracy - desired relative error in forces

pair_coeff 1 1 0.00000 0.000
pair_coeff 1 2 0.00000 0.000
    # TODO - I would put here the sizes of H and O atoms instead of one big LJ repulsion from the O atom. What "e" to choose is still a question.
pair_coeff 2 2 0.65 3.166
    # epsilon, sigma, [LJ_Rcut, [Coul_Rcut]]
    # distance between H and O is 1.0 so 3.166 > 1.0 accounts for the size of a molecule as a whole
    # I guess the major part in forces inside a molecule are indeed due to OH and HOH (angle) bondings, so computing LJ and Coul for them would be practically a waste of time so it may be ommitted. So I see only an optimizational reason to set LJ coefs to 0 for H atoms inside a molecule. However here (as far as I understand) we set all LJ coefs to 0. I understand LJ is a short-rage potential so its contribution can be neglegible compared to Coul, but it's not obvious for me why it actually is.
    # TODO - there might be a more correct way to ommit unnecessary interaction by using special_bond

bond_style harmonic
    # E = k(r-r0)^2
bond_coeff 1 0.0 1.0
    # bondID k r0
    # ? - how does k=0 make sense?
    # Is this to formaly bond atoms but actual bonding is done by rattle?

angle_style harmonic
angle_coeff 1 0.0 109.47
    # ? - same, how does k=0 make sense?


velocity all create ${Text} ${rndSeed}
velocity all create 298 ${rndSeed}
velocity all create 298 1234

fix removeMomentum all momentum 1 linear 1 1 1 angular
    # 1 - adjust the momentum every 1 timesteps
    # linear 1/0 1/0 1/0 - zero the P_x/y/z
    # angular - zero angular momentum (TODO - add "angular" here?)
    # scale - scale velocities after the adjustment so T is conserved (TODO - add "scale" here?)

fix stab_iso all npt temp ${Text} ${Text} $(50.0*dt) iso ${Pext} ${Pext} $(500.0*dt)
fix stab_iso all npt temp 298 ${Text} $(50.0*dt) iso ${Pext} ${Pext} $(500.0*dt)
fix stab_iso all npt temp 298 298 $(50.0*dt) iso ${Pext} ${Pext} $(500.0*dt)
fix stab_iso all npt temp 298 298 50 iso ${Pext} ${Pext} $(500.0*dt)
fix stab_iso all npt temp 298 298 50 iso 1 ${Pext} $(500.0*dt)
fix stab_iso all npt temp 298 298 50 iso 1 1 $(500.0*dt)
fix stab_iso all npt temp 298 298 50 iso 1 1 500
    # Tstart,Tstop = external temperature at start/end of run
    # Tdamp = temperature damping parameter (time units)
    # temp - for thermostat, iso - for barostat

fix stab_constrain all rattle 1.0e-5 100 0 b 1 a 1
  0 = # of size 2 clusters
  0 = # of size 3 clusters
  0 = # of size 4 clusters
  1000 = # of frozen angles
  find clusters CPU = 0.000487089 secs
    # fix ID group-ID shake tol iter N constraint1 value1 ...
    # iter - max # of iterations in each SHAKE solution
    # print SHAKE statistics every N many timesteps (0 = never)
    # b - bonds, a - angles
    # b 1 - bonds of type 1
    # a 1 - bonds of type 1
    # shake adds forces to make the displacement satisfy constraints - e.g. |r_ij|=d
    # rattle does the same and additionally it refines velocities - e.g. (|r|)'_t = 0.
    # *should be defined after other force- and v- modifiers since it doesn't account for them

thermo_style custom step density press temp
thermo ${NdumpStats}
thermo 10
run ${Nstab}
run 5000
PPPM initialization ...
  using 12-bit tables for long-range coulomb (src/kspace.cpp:332)
  G vector (1/distance) = 0.305114
  grid = 27 27 27
  stencil order = 5
  estimated absolute RMS force accuracy = 0.00306414
  estimated relative force accuracy = 9.22755e-06
  using double precision FFTW3
  3d grid and FFT values/proc = 10880 3645
Neighbor list info ...
  update every 1 steps, delay 10 steps, check yes
  max neighbors/atom: 2000, page size: 100000
  master list distance cutoff = 12
  ghost atom cutoff = 12
  binsize = 6, bins = 6 6 6
  1 neighbor lists, perpetual/occasional/extra = 1 0 0
  (1) pair lj/cut/coul/long, perpetual
      attributes: half, newton on
      pair build: half/bin/newton
      stencil: half/bin/3d/newton
      bin: standard
Per MPI rank memory allocation (min/avg/max) = 9.834 | 10.02 | 10.29 Mbytes
Step Density Press Temp 
       0    1.0041648    50479.628    296.38482 
      10   0.99700539    41713.557     402.8505 
      20   0.97937175    22789.155    901.49031 
      30   0.96177521     15218.77    1056.9103 
      40   0.94867849    14748.859    882.75667 
      50   0.93765744    12918.763    789.12955 
      60   0.92722841    10901.396    728.08032 
      70   0.91735262     9254.458    678.18899 
      80   0.90834111    7784.9475    640.07442 
      90   0.90040603    6220.0046    627.11559 
     100   0.89358934    5316.5461    588.74077 
     110   0.88771626     4261.079    559.36092 
     120   0.88266744    2926.2155    546.81714 
     130   0.87841205    2181.7535     504.6737 
     140   0.87484694    1355.6965    477.37645 
     150   0.87191727    556.54645    454.37829 
     160   0.86960843   -205.19253    442.33721 
     170   0.86791532   -721.53417      426.825 
     180   0.86680305   -1113.2129    409.46333 
     190   0.86622839   -1501.7972    400.30291 
     200   0.86616772      -1732.1    384.95868 
     210    0.8665793   -1911.4788    371.21185 
     220   0.86742329   -2099.6493    364.72343 
     230   0.86867487   -2288.2038    362.45793 
     240   0.87031196   -2225.7725    347.17569 
     250   0.87226673   -2220.3783    338.77046 
     260   0.87448338   -2271.1277    334.29506 
     270   0.87692584   -2157.7234     325.4055 
     280   0.87952499   -1937.3082    316.86993 
     290   0.88219013   -1701.8362    309.76025 
     300   0.88484617   -1634.8818     304.3503 
     310   0.88747329   -1772.9221    305.37176 
     320    0.8901026   -1829.7784    301.48519 
     330   0.89274758   -1815.5351    303.72877 
     340   0.89539094   -1512.5218    295.67327 
     350   0.89795816     -1231.09    286.92605 
     360    0.9003909   -1173.1951    287.95332 
     370   0.90269297   -1115.1442    288.47949 
     380   0.90487322   -957.52677    286.06989 
     390   0.90692039   -902.54709    287.20466 
     400   0.90884749   -968.66976    289.92507 
     410   0.91069552   -1049.7582    296.99073 
     420   0.91249865    -928.6362    296.02121 
     430   0.91424304   -792.46129    294.04345 
     440   0.91590759     -717.948    295.39402 
     450   0.91748618   -574.99496    290.22473 
     460   0.91896475   -573.94164    292.76504 
     470   0.92035953   -622.63244    294.04262 
     480   0.92170262   -722.76282    300.74746 
     490   0.92302317   -558.41258    295.71951 
     500   0.92429446    -459.3076    293.66058 
     510   0.92549625    -370.3624    291.61963 
     520   0.92662127   -380.69936    296.52599 
     530   0.92768141   -355.44995    298.24365 
     540   0.92868383   -274.30051    294.59699 
     550    0.9296187   -216.13623    295.45982 
     560   0.93048027    -162.3768     298.9476 
     570   0.93126451   -68.617708    298.74624 
     580   0.93196352   -132.02419    302.32223 
     590    0.9326063    -268.5249    306.28362 
     600   0.93323456   -232.30767    300.96937 
     610   0.93384987    -314.3482    306.49251 
     620   0.93447022   -357.95152    310.44428 
     630   0.93510624   -211.67406    304.25863 
     640   0.93571967     45.43962    289.48236 
     650   0.93625791   -87.520468    290.43518 
     660   0.93675471   -248.50864    293.31071 
     670   0.93726011   -334.73285    297.29832 
     680   0.93779816   -442.09981    304.76244 
     690   0.93838846   -302.51345    296.86108 
     700   0.93899929    -234.0984    292.78319 
     710   0.93961017   -319.80877    294.25965 
     720   0.94024327   -423.31338    296.43105 
     730   0.94092026   -364.78737    295.45202 
     740   0.94162452    -259.9318    295.04422 
     750   0.94232445   -154.54201    291.24536 
     760    0.9429995   -280.89112     295.5347 
     770   0.94368169   -440.10075    304.07912 
     780   0.94440622   -269.76539    300.27936 
     790   0.94512974    22.661679    291.88969 
     800   0.94577511    195.58727    292.25029 
     810    0.9463016    238.37999    298.63426 
     820   0.94670532    347.62927     299.5409 
     830   0.94696883    519.38532    296.08864 
     840   0.94706216    603.28505    294.86291 
     850   0.94697982    534.82042    295.22922 
     860   0.94675971    272.65425    299.92429 
     870   0.94648585   -39.137268     308.8097 
     880   0.94623977    -32.35574     305.3209 
     890   0.94602795   -5.2546816    305.44135 
     900   0.94583176    168.75347     297.9229 
     910   0.94561636    7.1581767    299.60057 
     920   0.94542213   -335.71753    300.16321 
     930   0.94534357   -689.19902    303.32498 
     940   0.94545717   -692.07392    300.97676 
     950   0.94575389   -543.87001    297.92197 
     960   0.94618064   -493.88901    298.55981 
     970   0.94670854    -362.6407    292.61468 
     980   0.94729291   -151.37895    286.84065 
     990   0.94787129    28.881852    284.48699 
    1000   0.94839684    31.659916    290.09363 
    1010   0.94887151   -93.777797    299.66972 
    1020    0.9493263   -6.1306048    294.34726 
    1030   0.94975307   -112.71731    297.34889 
    1040   0.95017338   -146.18952    295.29089 
    1050   0.95060538   -267.31553    301.42291 
    1060   0.95107015   -102.22078    299.02639 
    1070   0.95152364    236.89769    290.20531 
    1080   0.95188561    171.88832    299.87422 
    1090   0.95216586    179.93496    301.80022 
    1100   0.95237471      125.303    308.19941 
    1110   0.95252778     175.7329    305.48969 
    1120   0.95262145    251.01566    294.49017 
    1130   0.95264598    61.471421    294.44557 
    1140   0.95265429   -241.12233    303.21482 
    1150   0.95272451    -366.7782    306.49077 
    1160   0.95289119   -356.71034    304.64114 
    1170   0.95314274   -181.68109     299.2056 
    1180   0.95342775    41.267277    294.19898 
    1190    0.9536833    168.75902    291.89678 
    1200   0.95387458    183.01524    294.43954 
    1210   0.95399947    187.41236    297.58864 
    1220   0.95406302    149.69487    301.88704 
    1230   0.95407748    133.78543    303.03708 
    1240   0.95405031    205.24866    298.24466 
    1250   0.95397008    172.73138    296.87513 
    1260   0.95384935    5.7941548    299.84431 
    1270   0.95373517   -186.17049    304.75983 
    1280   0.95367398   -125.59093    298.99475 
    1290   0.95365575   -73.052152    294.50419 
    1300   0.95365809    29.138526    288.49271 
    1310   0.95365591   -8.9611889    293.75334 
    1320   0.95365446    -49.85583     296.1088 
    1330   0.95366848   -90.586982    295.06816 
    1340   0.95371046   -195.40036    298.69045 
    1350   0.95380003   -82.581164    294.42062 
    1360   0.95390641     119.8505    293.04099 
    1370   0.95396953    356.86397    292.94969 
    1380   0.95392654     516.1939    291.33979 
    1390   0.95374687    338.54474    298.98447 
    1400   0.95347983    137.72978    302.72624 
    1410   0.95318776    37.397973    301.45516 
    1420   0.95290205   -12.963131    302.39394 
    1430   0.95263308     95.71093    295.52627 
    1440   0.95235737    66.879999    296.19084 
    1450   0.95207872   -21.940396    301.31709 
    1460   0.95181743    13.075831    300.73728 
    1470   0.95157066   -80.357188    303.29609 
    1480   0.95135905   -141.98933    301.08709 
    1490   0.95120019   -148.08193    296.95527 
    1500   0.95109312   -116.37111    295.12242 
    1510   0.95102574   -75.312323    296.33801 
    1520   0.95098462   -109.17803    303.49645 
    1530   0.95097291   -38.221665    300.96328 
    1540   0.95097585   -84.400528    305.30955 
    1550   0.95099817   -13.759079    302.25848 
    1560   0.95102254    130.25715    291.64244 
    1570   0.95101628     16.17003    291.41945 
    1580   0.95100852   -252.74096    297.00492 
    1590   0.95107539   -551.81059    302.20549 
    1600   0.95129377   -646.17657    303.30056 
    1610    0.9516833   -534.23695    304.93314 
    1620    0.9522029   -264.61187    301.30632 
    1630   0.95277308     27.67751    294.35021 
    1640   0.95331187    162.39335    294.49097 
    1650   0.95377806    224.05252    293.47842 
    1660     0.954162    148.63762    294.16156 
    1670    0.9544839    75.467136    292.34723 
    1680   0.95477234   -79.662919    295.70419 
    1690   0.95506868   -178.79008    294.21964 
    1700   0.95540711   -336.87021     298.6432 
    1710   0.95581747   -158.95917    298.63971 
    1720   0.95625294    120.92093    296.31231 
    1730    0.9566382    231.89244    295.48064 
    1740   0.95693641    403.23328    289.01073 
    1750   0.95710995    418.86658    290.94243 
    1760   0.95715651    335.09657    290.90501 
    1770   0.95710862     133.9196    288.13836 
    1780   0.95702918   -183.63775    297.03558 
    1790   0.95699664   -170.23887    298.04315 
    1800   0.95701412   -88.512439    300.81326 
    1810    0.9570555    8.8298567    301.60221 
    1820   0.95709334    102.17211     301.8772 
    1830   0.95709962    187.75113     300.4918 
    1840   0.95705628    148.40765    303.66836 
    1850    0.9569703    94.043651    309.27304 
    1860   0.95685875    97.172724    307.94768 
    1870   0.95672551    34.929641    308.74825 
    1880   0.95658816   -68.614612    307.75003 
    1890    0.9564741   -78.310364    299.74902 
    1900   0.95639217   -225.63117    304.36163 
    1910   0.95637291   -244.92277    307.43853 
    1920   0.95642521   -227.51375    308.79163 
    1930   0.95653798   -110.30322    303.32996 
    1940   0.95667723    72.876096    292.22636 
    1950   0.95679983   -59.784307    291.23167 
    1960   0.95693978   -398.25424     297.6168 
    1970   0.95718529   -569.67078    296.00592 
    1980   0.95758552    -619.5787    294.93759 
    1990   0.95814799   -527.15357    294.31881 
    2000   0.95884166   -350.15477    292.42358 
    2010   0.95961113   -109.20236    288.81162 
    2020   0.96038654    78.340812    290.10189 
    2030     0.961115    148.93019    288.81002 
    2040   0.96177869    92.092932    290.80189 
    2050   0.96238869    146.79132    290.34797 
    2060   0.96293837     104.2088    296.09365 
    2070   0.96343212    229.76913     295.1656 
    2080   0.96384088    429.99577    290.26641 
    2090   0.96412034    303.51007    294.96025 
    2100   0.96430313    95.011559    300.49273 
    2110   0.96444806    34.572144    302.06336 
    2120   0.96457783    12.429829     304.9203 
    2130   0.96469821     49.90517    308.99693 
    2140   0.96479264    370.17614    299.34664 
    2150    0.9647798    633.45793    292.50195 
    2160   0.96458772    694.70906    293.51841 
    2170   0.96420283     611.2009    294.72495 
    2180   0.96365648    393.38641    296.95673 
    2190   0.96301695    65.113082    301.83793 
    2200   0.96237582   -146.39258    301.49952 
    2210   0.96179794   -283.57885    304.29013 
    2220   0.96131384   -159.88648    301.14855 
    2230   0.96089164   -4.0966882     298.2609 
    2240   0.96048761   -15.320416      298.942 
    2250    0.9601053   -181.95168    298.77467 
    2260   0.95978854   -356.24225     301.1509 
    2270   0.95958327   -444.82173     304.0622 
    2280   0.95951019   -420.47497    304.73397 
    2290   0.95955839   -247.37238    298.63849 
    2300   0.95968308   -219.44842    301.47062 
    2310   0.95986269   -70.368759    299.20834 
    2320   0.96005792    95.480736    294.76985 
    2330   0.96022263    129.86431    295.74647 
    2340   0.96034558    111.22244     298.2814 
    2350   0.96042893     208.4928    296.36202 
    2360   0.96045096    275.87373    290.76958 
    2370    0.9603968    178.58042    291.54839 
    2380   0.96029106    77.361829    296.03369 
    2390   0.96015992    149.63518    296.73514 
    2400   0.95998979    193.58033    300.50569 
    2410   0.95976738    190.94283     303.0342 
    2420   0.95949562    135.57178    305.89869 
    2430   0.95918858    148.35393    305.51067 
    2440   0.95884055    341.97828    293.92201 
    2450   0.95841022     314.3154    290.30646 
    2460   0.95790207    123.27488    294.09058 
    2470   0.95736629    17.388624    293.01982 
    2480   0.95684081   -157.52328    295.11563 
    2490   0.95637201   -285.77537    298.63364 
    2500   0.95599624   -319.36063    301.64077 
    2510   0.95571784   -160.11693    296.32485 
    2520   0.95549651   -115.80223    300.36683 
    2530   0.95530975    9.1436446    299.80566 
    2540   0.95512159     242.4341    292.75656 
    2550   0.95487323    271.68777    291.64457 
    2560   0.95455442    169.06119    288.07255 
    2570   0.95420277   -235.19626    299.79379 
    2580   0.95391801   -386.49877    307.70553 
    2590   0.95374231   -129.57965    295.51762 
    2600   0.95361837   -128.21115    299.14402 
    2610   0.95353179    -116.3041    298.35416 
    2620   0.95348312    -159.9872    299.18874 
    2630    0.9534797   -136.15682    302.94366 
    2640   0.95350936    140.61193      294.575 
    2650   0.95349919    392.64458    286.99957 
    2660    0.9533853    249.82222    295.22676 
    2670   0.95319946     34.25871    301.57649 
    2680   0.95300582   -103.13803    303.49487 
    2690   0.95283896   -20.909676    299.30577 
    2700   0.95268415   -37.352078    305.86686 
    2710   0.95253717     92.10049    301.36096 
    2720   0.95237185    91.088217    299.94051 
    2730   0.95218328    61.528183     301.3461 
    2740   0.95197729    127.60475    299.51829 
    2750   0.95173578    201.29177    296.12081 
    2760   0.95144382    89.907345    298.18682 
    2770   0.95113475   -216.34697     304.7365 
    2780    0.9508892    -380.6677    300.88104 
    2790   0.95076188   -536.49567     301.9208 
    2800   0.95078784   -493.56007    300.48258 
    2810   0.95095633    -344.8147    296.32486 
    2820   0.95122237   -172.20555    296.41863 
    2830   0.95153354    45.374979    293.33183 
    2840   0.95183304    41.451756    293.02118 
    2850   0.95212254   -164.30593    297.98643 
    2860   0.95245311   -267.75539    301.09296 
    2870   0.95285671    -272.1531    301.58121 
    2880   0.95333142   -113.31388    295.61915 
    2890   0.95383707    37.236789    292.67753 
    2900   0.95432848    128.50775    291.99831 
    2910   0.95477992    125.78349     293.3107 
    2920   0.95518992    112.32468    293.23808 
    2930   0.95556285    107.11871    291.50606 
    2940   0.95590448   -29.405105    299.37016 
    2950   0.95624389    55.456602    299.27443 
    2960   0.95656379    216.83411    295.13469 
    2970   0.95681818    327.80446    289.37319 
    2980   0.95698434    95.025874    298.73244 
    2990   0.95711157    111.06015    299.39024 
    3000   0.95720461     275.2404     297.0972 
    3010   0.95721745    389.05699    293.47065 
    3020   0.95711966    381.86564    293.37898 
    3030   0.95690908    386.87564    292.00655 
    3040   0.95658947    316.67522    294.60768 
    3050   0.95617875    197.56214     300.3006 
    3060   0.95571383     15.34327    305.61731 
    3070   0.95524624   -139.22871    309.36753 
    3080   0.95481696   -86.252631    306.91088 
    3090    0.9544123    94.832818    303.82385 
    3100    0.9539833    234.23704    302.13862 
    3110   0.95349225    188.60194    301.13116 
    3120   0.95295123    38.541014    302.85883 
    3130   0.95239887   -49.196917    303.74601 
    3140   0.95186338   -148.30748    306.11447 
    3150   0.95137327   -189.82987    303.95167 
    3160   0.95094105   -191.28604    300.54087 
    3170   0.95056619   -154.51884    294.78381 
    3180   0.95024554   -329.59748    298.83971 
    3190   0.95001634   -325.08267    293.55128 
    3200   0.94988625   -316.55474    291.26653 
    3210   0.94984558    -209.9689    290.28092 
    3220   0.94986829   -163.24383    293.19885 
    3230   0.94993874   -163.27251    296.68472 
    3240   0.95005781   -168.75932    296.65952 
    3250   0.95022229    10.579006    286.30685 
    3260   0.95039321   -42.826754    292.91348 
    3270    0.9505722    -27.98611     298.4805 
    3280   0.95075451    155.24798     298.2158 
    3290   0.95089011    359.33981     292.4017 
    3300   0.95092587    332.52004    294.34294 
    3310   0.95086622    142.06363     304.9175 
    3320   0.95075703    207.24386    294.77867 
    3330   0.95060028   -76.060543    300.97573 
    3340   0.95046027   -244.58651    305.45034 
    3350   0.95038589   -165.38057    303.65214 
    3360   0.95036078   -70.393729    299.07877 
    3370   0.95036177   -116.97358    295.32297 
    3380   0.95040296   -340.02546    302.96243 
    3390   0.95053951   -412.93096     304.2311 
    3400   0.95079922   -413.38387    302.39612 
    3410   0.95118528     -482.259    303.92491 
    3420   0.95171455   -491.83926    306.75661 
    3430   0.95238127   -128.98674    297.51736 
    3440    0.9530954    97.716159    295.60861 
    3450   0.95378906    83.281137    300.89314 
    3460   0.95445412    260.48248    300.53988 
    3470   0.95504454    465.66558    299.92412 
    3480   0.95550266    553.41928    292.68772 
    3490   0.95580777    368.77189    295.58872 
    3500    0.9560005    271.94758    297.47215 
    3510   0.95611424    192.88261    297.81634 
    3520   0.95616964    190.56593    293.44468 
    3530    0.9561709    168.46016    289.57726 
    3540   0.95612635   -10.574728    290.99895 
    3550    0.9560842   -171.91649    293.49922 
    3560   0.95608873   -156.87157    293.60343 
    3570    0.9561401   -125.97028    300.23674 
    3580   0.95622209     95.55642    298.20449 
    3590   0.95628059    211.04976    293.70922 
    3600   0.95628144    159.69828    294.52741 
    3610   0.95623343    157.12166    291.86948 
    3620    0.9561429    6.9237687    298.32491 
    3630   0.95604539   -67.267996     299.1451 
    3640    0.9559679   -113.70619     296.9072 
    3650   0.95592338   -105.75042     300.3496 
    3660   0.95590187    161.95196    296.63602 
    3670   0.95583457    359.18609    293.53963 
    3680   0.95566657    272.27243    295.02109 
    3690   0.95541765    80.915935    298.80465 
    3700   0.95513599    84.642627    294.93421 
    3710   0.95482894    44.651166    296.63226 
    3720   0.95450726   -85.517871    302.59703 
    3730   0.95420396   -124.34718    303.24413 
    3740   0.95393119    -64.50138    300.14646 
    3750   0.95367766   -131.76275    305.79306 
    3760   0.95345453   -103.84242    305.48877 
    3770   0.95326315   -126.74879    302.20067 
    3780   0.95310561   -125.71364     301.3949 
    3790   0.95298397   -159.82551    298.76953 
    3800   0.95291335   -378.98736    302.18079 
    3810   0.95294825    -382.4599    299.20897 
    3820   0.95309601   -296.02928    303.64169 
    3830   0.95333134   -148.18916    301.49631 
    3840   0.95362118   -157.23737    301.24611 
    3850    0.9539612   -130.23874    302.15938 
    3860   0.95434363   -13.500182    299.47477 
    3870   0.95473745    97.001786    298.42686 
    3880   0.95510878    243.27877    294.58773 
    3890   0.95541608    348.27473    292.35214 
    3900   0.95563076    261.12985     293.9147 
    3910   0.95577208    128.15653    293.55207 
    3920   0.95587619    66.555897     292.5398 
    3930   0.95596159    24.262522    293.30891 
    3940   0.95604097   -4.6732625    295.71054 
    3950   0.95612041    70.771272    291.40483 
    3960   0.95618284    125.74868    285.43698 
    3970   0.95621466    11.272284    292.80245 
    3980   0.95623332    159.30416    292.98655 
    3990   0.95621555     8.920468    301.86066 
    4000   0.95618965   -64.357994    302.19297 
    4010   0.95618329   -83.962354    302.63415 
    4020   0.95619928   0.34983887    297.74878 
    4030    0.9562196    14.559943    297.86465 
    4040   0.95623884   -81.623169    306.53001 
    4050   0.95627426    105.82466    303.67961 
    4060   0.95627923    347.40574    301.18234 
    4070   0.95618421       424.42    298.65122 
    4080   0.95596794    176.97161    305.44084 
    4090   0.95568544    100.87438    300.44213 
    4100   0.95536811    32.072824    297.49458 
    4110   0.95503017    7.7596412    300.94386 
    4120   0.95467302    246.25939    288.22123 
    4130   0.95424539    106.12792    288.57311 
    4140   0.95377631   -185.37733    293.70504 
    4150   0.95334821   -463.77617    301.74018 
    4160    0.9530405   -566.19194    304.87104 
    4170   0.95288967   -455.92621    299.80907 
    4180   0.95287359   -393.53294    301.31225 
    4190   0.95297467   -335.69766    300.06853 
    4200   0.95317949   -280.45821    302.46868 
    4210   0.95347246   -200.10839    302.17559 
    4220   0.95383996   -303.70196    305.79577 
    4230   0.95430893   -358.94705    303.29725 
    4240    0.9548987   -243.93648    295.94778 
    4250   0.95557797   -41.952189     293.1763 
    4260   0.95629324    99.944966    292.22144 
    4270   0.95700253    207.40513     288.5675 
    4280   0.95767601    226.42849    288.39301 
    4290   0.95830468    144.61365    294.71898 
    4300   0.95890155    252.99691    291.48989 
    4310   0.95944362    301.93941    296.88529 
    4320    0.9599078    455.77217    289.91044 
    4330   0.96026342    256.27983    297.35647 
    4340    0.9605475    145.86917    303.65976 
    4350   0.96079425    121.95278    306.07933 
    4360    0.9610102    175.26208    304.89664 
    4370   0.96117697    437.20626    292.58694 
    4380   0.96122587     520.3111    295.36078 
    4390     0.961116    639.59604    292.19528 
    4400   0.96082047    440.96587    299.54193 
    4410   0.96037946     253.0884    303.58015 
    4420   0.95984649    137.66392    301.13334 
    4430   0.95925804   -101.89225     308.5531 
    4440    0.9586692   -31.984418    299.95621 
    4450     0.958079   -137.05249    299.31387 
    4460   0.95750851   -227.47928    299.97357 
    4470   0.95698454   -224.78951    301.46296 
    4480   0.95650786   -134.68968    298.00613 
    4490   0.95605813   -91.225545    295.16898 
    4500   0.95562382   -175.98994    293.40682 
    4510   0.95523407   -467.51641    296.35266 
    4520   0.95496869   -702.04322    299.33475 
    4530   0.95490157   -796.96948     303.2752 
    4540   0.95506533   -658.26652    296.72679 
    4550   0.95543655   -545.96316    294.61663 
    4560   0.95598378   -386.17921    297.73924 
    4570   0.95666277   -118.85282      298.859 
    4580    0.9574032    91.428671    299.69032 
    4590   0.95814546    199.81399    296.26874 
    4600   0.95886105    116.12022     298.9053 
    4610    0.9595672    13.834809    302.06298 
    4620   0.96029176    32.063313    303.50075 
    4630   0.96102498    297.21593    298.81952 
    4640   0.96169512    555.63081    294.15785 
    4650    0.9622281    565.56157    293.21779 
    4660   0.96261637    318.54314    296.24903 
    4670     0.962922    92.246734    298.13665 
    4680   0.96320428    143.91574    297.22738 
    4690    0.9634493    352.95501    293.73723 
    4700   0.96360078    421.04777    291.79777 
    4710   0.96363639    271.63713    293.04435 
    4720   0.96359332    59.473981    296.70589 
    4730   0.96352364     75.01592    295.43763 
    4740   0.96342688       214.62     289.9259 
    4750   0.96326986    140.65965    293.41547 
    4760   0.96306328    50.833759    299.03283 
    4770   0.96282984    64.731244    299.38458 
    4780   0.96257111    5.0047599    301.53309 
    4790   0.96229866     31.92184    300.54756 
    4800   0.96200727     59.23251    298.32921 
    4810   0.96168912   -7.7183059    297.95171 
    4820   0.96136272   -137.21869    301.58868 
    4830   0.96106128   -185.34985    305.29879 
    4840   0.96080012   -125.55948    305.53891 
    4850   0.96056495   -7.6357861     301.9301 
    4860   0.96032355    83.527335    299.69151 
    4870   0.96004701    208.23634    291.07238 
    4880   0.95970278    124.74415    292.73922 
    4890   0.95930686  -0.16410239    295.46177 
    4900   0.95889477   -102.56949    295.17699 
    4910   0.95849809   -245.87271    299.33837 
    4920   0.95815568   -341.08601    301.09723 
    4930   0.95790118   -411.47074    298.70438 
    4940   0.95775899   -419.58644    296.84341 
    4950   0.95773565   -331.87155    297.93549 
    4960   0.95781086   -202.26599    297.99074 
    4970   0.95795378   -175.33705    301.47602 
    4980   0.95815162   -8.8332182    299.25281 
    4990   0.95836052     179.7201    299.03697 
    5000   0.95852977    161.57466    303.08843 
Loop time of 27.8081 on 6 procs for 5000 steps with 3000 atoms

Performance: 15.535 ns/day, 1.545 hours/ns, 179.804 timesteps/s
99.5% CPU use with 6 MPI tasks x 1 OpenMP threads

MPI task timing breakdown:
Section |  min time  |  avg time  |  max time  |%varavg| %total
---------------------------------------------------------------
Pair    | 12.51      | 13.72      | 14.481     |  19.1 | 49.34
Bond    | 0.0028124  | 0.0033173  | 0.0041649  |   0.8 |  0.01
Kspace  | 5.6017     | 6.3748     | 7.587      |  28.0 | 22.92
Neigh   | 1.1897     | 1.1904     | 1.191      |   0.0 |  4.28
Comm    | 1.079      | 1.2238     | 1.3753     |  11.3 |  4.40
Output  | 0.011889   | 0.013165   | 0.018498   |   2.1 |  0.05
Modify  | 4.6903     | 5.0207     | 5.3196     |  12.0 | 18.05
Other   |            | 0.2617     |            |       |  0.94

Nlocal:    500 ave 510 max 492 min
Histogram: 1 1 0 1 0 1 1 0 0 1
Nghost:    6776.67 ave 6792 max 6756 min
Histogram: 1 0 0 0 2 0 1 0 0 2
Neighs:    173612 ave 179029 max 160825 min
Histogram: 1 0 0 0 1 0 0 0 1 3

Total # of neighbors = 1041672
Ave neighs/atom = 347.224
Ave special neighs/atom = 2
Neighbor list builds = 258
Dangerous builds = 8
unfix stab_iso
unfix stab_constrain

reset_timestep 0
fix stab_iso all npt temp ${Text} ${Text} $(200.0*dt) iso ${Pext} ${Pext} $(150.0*dt)
fix stab_iso all npt temp 298 ${Text} $(200.0*dt) iso ${Pext} ${Pext} $(150.0*dt)
fix stab_iso all npt temp 298 298 $(200.0*dt) iso ${Pext} ${Pext} $(150.0*dt)
fix stab_iso all npt temp 298 298 200 iso ${Pext} ${Pext} $(150.0*dt)
fix stab_iso all npt temp 298 298 200 iso 1 ${Pext} $(150.0*dt)
fix stab_iso all npt temp 298 298 200 iso 1 1 $(150.0*dt)
fix stab_iso all npt temp 298 298 200 iso 1 1 150
fix stab_constrain all rattle 1.0e-5 100 0 b 1 a 1
  0 = # of size 2 clusters
  0 = # of size 3 clusters
  0 = # of size 4 clusters
  1000 = # of frozen angles
  find clusters CPU = 0.000299931 secs

thermo_style custom step density etotal press temp
thermo_modify flush yes
    # insures the output is dumped in the file and not buffered or something
thermo ${NdumpStats}
thermo 10
dump trj all atom ${NdumpFrames} wat.lammpstrj
dump trj all atom 1000 wat.lammpstrj

run ${Nrun}
run 500000
PPPM initialization ...
  using 12-bit tables for long-range coulomb (src/kspace.cpp:332)
  G vector (1/distance) = 0.303976
  grid = 27 27 27
  stencil order = 5
  estimated absolute RMS force accuracy = 0.00320927
  estimated relative force accuracy = 9.66461e-06
  using double precision FFTW3
  3d grid and FFT values/proc = 10880 3645
Per MPI rank memory allocation (min/avg/max) = 10.85 | 11.16 | 11.33 Mbytes
Step Density TotEng Press Temp 
       0   0.95852977   -9375.0547    126.63849    303.08843 
      10   0.95835161   -9375.4219    125.16747    298.66723 
      20   0.95780317   -9375.8108     28.43575    297.52303 
      30   0.95715855   -9376.0301   -118.38672    302.42547 
      40   0.95685631   -9375.9406   -98.426656    301.34752 
      50   0.95688262   -9376.0975   -46.367523    300.43479 
      60   0.95706603   -9376.5642   -19.001144     307.7732 
      70   0.95723608   -9377.4452    162.00773    308.92106 
      80   0.95687961   -9379.0609    280.06021     299.5625 
      90   0.95568115   -9380.9155      42.4013    293.97743 
     100    0.9543031   -9382.0195   -270.31685    300.31276 
     110    0.9536602   -9382.3617   -220.16905    296.38708 
     120   0.95378881   -9382.8978   -171.71665    295.99816 
     130   0.95454391   -9383.6699    -173.7667    304.08428 
     140   0.95589011   -9384.8742     45.14643    300.82095 
     150   0.95726656    -9386.577    121.60958    296.81705 
     160   0.95839741   -9388.4911   -25.814025    306.40241 
     170   0.95961542   -9390.3009     78.69135    308.66004 
     180   0.96064954   -9392.8467    316.19967    297.81717 
     190   0.96083295   -9395.7321    150.14824    298.49576 
     200    0.9604597   -9398.5623   -38.480983    304.10323 
     210   0.96010559    -9401.103   -45.325155    300.82458 
     220   0.95989915   -9403.9847   -104.39819    303.76481 
     230     0.959992   -9406.8595   -58.462455    304.22507 
     240   0.96032952   -9410.4885   -28.001619    307.25752 
     250   0.96077775   -9414.5615    136.97851    301.57383 
     260   0.96085468   -9419.2118    222.34498    291.60015 
     270   0.96024352   -9423.9526    -28.05833    294.07544 
     280   0.95960135   -9428.1246   -297.66986    303.88403 
     290    0.9597876   -9432.0479   -153.62296    302.78325 
     300   0.96057443   -9436.9193     58.05892    301.93202 
     310   0.96126043   -9442.1328    240.80582    294.73507 
     320   0.96127849   -9447.6797    87.477881    297.78471 
     330   0.96092731   -9452.6854    9.9110365    294.05835 
     340   0.96055626   -9457.1096   -124.24693    287.64728 
     350   0.96061964   -9460.8917   -310.40304    296.69746 
     360   0.96163208   -9464.6149   -106.55111    298.25935 
     370   0.96310675    -9468.899    99.796861    297.08147 
     380   0.96433849   -9472.8198    239.22702    290.83456 
     390   0.96490339   -9476.7286    127.22484    295.13806 
     400   0.96500896   -9479.8859    80.968908    290.72035 
     410   0.96489905   -9482.8026   -94.754912    298.38833 
     420   0.96496225   -9485.0149    96.831217    290.79216 
     430   0.96480981    -9487.414    55.864325     289.7058 
     440   0.96446299    -9489.146    -72.37658    293.82641 
     450   0.96429785   -9490.4886   -30.298533    291.66454 
     460   0.96420634   -9491.5212    84.541091    285.56955 
     470   0.96389962   -9492.3371   -23.471899    290.56497 
     480   0.96358995   -9492.8457   -39.168198    295.93264 
     490   0.96337941    -9493.114    11.351488    292.16155 
     500   0.96318128   -9493.4079   -103.90982    297.60852 
     510   0.96324781   -9493.3123    -19.26774    298.09438 
     520   0.96338205   -9493.7231    118.18224    297.90254 
     530    0.9631112   -9494.2793    223.75224    290.10524 
     540   0.96217973    -9494.793   -52.014276    290.20972 
     550   0.96128786   -9494.1785   -209.20305     293.4373 
     560   0.96099794   -9493.3315   -127.45876    292.26014 
     570   0.96114075   -9492.4562   -29.964234    288.35127 
     580   0.96145659   -9491.5859   -27.771186     292.3942 
     590   0.96182352   -9490.6831    135.15728    291.12574 
     600   0.96180377   -9490.1055    148.77488     290.9728 
     610   0.96126251   -9489.2941    86.546597    288.90167 
     620   0.96037385    -9488.328   -17.331012    290.11147 
     630   0.95943302    -9486.828   -103.00773    294.11177 
     640   0.95874679    -9485.092   -110.30482    290.29615 
     650   0.95840468   -9483.1297   -113.93829    287.04515 
     660   0.95847142    -9480.903   -201.11715    291.92226 
     670   0.95918325   -9478.3963   -126.20155    295.94773 
     680   0.96038435   -9476.4013    79.920603     297.4753 
     690   0.96145948   -9474.7958     208.3281    295.60513 
     700     0.961962   -9473.2698    160.70161    294.45494 
     710   0.96196222   -9471.6037    44.008854    295.28835 
     720   0.96174662   -9469.6978    101.00103    288.13241 
     730   0.96125118   -9467.9015   -35.724476     291.0487 
     740   0.96076047   -9465.7004    -49.15002    295.97202 
     750   0.96030937   -9463.6563    160.37463    292.93383 
     760   0.95932409   -9462.0216    154.39453    288.96281 
     770   0.95779596   -9460.3071   -148.61172    295.89025 
     780   0.95651004   -9457.6789   -84.786888    289.37194 
     790   0.95549489   -9455.1121   -105.26628    282.22342 
     800     0.954855   -9452.0349   -339.85573    287.83587 
     810   0.95524861   -9448.1575   -251.86933    289.69406 
     820   0.95653691   -9444.8828   -8.6226659    292.40129 
     830   0.95795221   -9441.8957    227.61258    289.11521 
     840   0.95878481   -9439.0789    142.02548    293.55081 
     850   0.95914254   -9436.0729    83.754012    296.53533 
     860   0.95924704   -9433.0503    20.149986    297.02404 
     870   0.95925628   -9430.0844    40.762909    296.24105 
     880   0.95909509   -9427.3814    128.34289    298.89464 
     890   0.95843458    -9425.364    236.81992    298.90523 
     900   0.95692895   -9423.9442    225.70221    291.01065 
     910   0.95461643   -9422.6034   -25.106534    286.88126 
     920   0.95226829   -9420.0711   -346.27661    289.64244 
     930    0.9509071   -9416.3385   -426.42267    296.01127 
     940   0.95082824   -9412.9386    -107.0807    292.01551 
     950   0.95120152   -9410.1753    69.898848    287.50622 
     960   0.95144197   -9407.5772   -2.7553889    287.33155 
     970   0.95172595   -9404.6052   -132.44426    293.31981 
     980   0.95242498   -9401.3054   -100.15611    296.01483 
     990   0.95353388   -9398.5452   -46.663622    302.04083 
    1000   0.95479657   -9396.0852    206.78561    298.24465 
    1010    0.9554937   -9394.3811    278.67467    295.23078 
    1020   0.95533221   -9392.8237    93.085257     297.2539 
    1030   0.95482758   -9390.7394   -118.96351    300.60891 
    1040   0.95463711   -9388.4922   -114.89762    301.13652 
    1050   0.95480082   -9386.5272    56.782415    299.12706 
    1060   0.95479323   -9385.2001    207.61871    293.58921 
    1070   0.95413354   -9384.3338    140.08665    290.97517 
    1080    0.9529876   -9382.8672   -143.49577    297.29011 
    1090   0.95219329   -9380.5312   -324.24181    305.47389 
    1100   0.95238866   -9378.3564   -228.19966    309.73547 
    1110   0.95336594    -9377.031    39.811799    304.65793 
    1120   0.95434298   -9376.5476    188.94639    299.53476 
    1130    0.9547956   -9376.2382    170.31742    295.92162 
    1140   0.95473701   -9375.7965    -27.69267    302.98407 
    1150   0.95467205   -9374.9523   -35.400236    302.68286 
    1160   0.95473674   -9374.5248    -54.88535    307.18809 
    1170   0.95493619   -9374.3755     64.66699    304.22434 
    1180   0.95498287   -9374.5001    64.633169     301.3959 
    1190   0.95482882   -9374.6751   -21.550217    304.93014 
    1200   0.95466009   -9375.0176    122.50191    297.68871 
    1210   0.95412314   -9375.7582    145.77628    289.11195 
    1220   0.95315339   -9376.1016    -179.0826     296.7638 
    1230   0.95262258   -9375.5525   -251.80825    298.43805 
    1240   0.95290537   -9374.9583   -123.40187    294.27781 
    1250   0.95366253   -9374.8509   -6.2570643    299.98896 
    1260     0.954437   -9375.0647    229.05928    297.74851 
    1270   0.95456639   -9375.6793    141.46221    300.45583 
    1280   0.95418729   -9376.0587    18.366349    301.50582 
    1290   0.95369773   -9376.1879    4.4535339    300.65595 
    1300   0.95312045   -9376.4663    109.92071    294.96213 
    1310   0.95223018   -9376.9114   -1.8927734    289.71746 
    1320   0.95131205    -9376.801   -204.99148    290.55622 
    1330   0.95103014   -9375.7972   -308.78571    292.60063 
    1340   0.95176856   -9374.7993   -250.70281    298.32925 
    1350   0.95335338   -9374.2229    37.279149    295.61698 
    1360   0.95499227   -9374.1623    139.91098     296.7748 
    1370   0.95621234     -9373.76    228.92803    294.08476 
    1380   0.95677725   -9373.4938    130.31697    296.33161 
    1390   0.95687013   -9372.8955    76.826241    299.10024 
    1400   0.95668478    -9372.307     63.20386    296.89998 
    1410   0.95630465   -9371.3628   -60.784446     296.4933 
    1420   0.95609338    -9370.056   -141.52043    300.72668 
    1430   0.95630618   -9368.7793   -46.171476    299.10639 
    1440   0.95672022   -9367.8833     26.45902    297.22395 
    1450   0.95709971   -9366.8522    20.767607     297.8713 
    1460   0.95741428   -9365.7142    43.973509    296.29816 
    1470   0.95762091    -9364.393    11.118576    295.74583 
    1480   0.95782021   -9362.9139   -55.167171    297.52258 
    1490   0.95816419   -9361.2589    30.560503    290.80098 
    1500    0.9584978   -9359.5012   -32.898749    294.79454 
    1510   0.95893277   -9357.2153   -33.974444    301.14288 
    1520   0.95948454   -9354.8594    52.535702    306.30874 
    1530   0.95986737   -9352.8907    175.06797    305.87031 
    1540   0.95970698   -9351.0761    171.02003    300.98303 
    1550   0.95898903   -9349.2157    13.393865    301.07679 
    1560   0.95813037   -9347.0151   -73.924322    306.43669 
    1570   0.95740702   -9344.5854   -21.148443    308.02649 
    1580   0.95670477   -9342.4974    51.800333    303.67409 
    1590   0.95586279   -9340.4501      -87.491     304.8338 
    1600   0.95522031   -9337.9874   -138.28988    308.62725 
    1610     0.954956   -9335.7367    24.137776    304.68345 
    1620   0.95459854   -9334.0828    183.32525    297.08524 
    1630   0.95367886   -9332.6736    71.673342     295.4365 
    1640   0.95246881   -9330.4408   -188.71946    294.73043 
    1650   0.95181605   -9327.1008   -376.88571    301.10297 
    1660   0.95232502   -9323.5974   -202.47119    304.08753 
    1670   0.95358892   -9320.7456    35.956201    305.19925 
    1680   0.95485993    -9318.318     153.1433    307.03141 
    1690   0.95566117   -9316.1531    248.15732    305.69027 
    1700   0.95567692   -9314.2589    233.38327    300.27307 
    1710   0.95494673   -9312.2022   -21.512223    307.02978 
    1720   0.95415734   -9309.5899   -84.488466    306.18465 
    1730   0.95362086    -9306.982   -85.858812    299.08418 
    1740   0.95342875   -9304.3383   -245.73907    308.42165 
    1750   0.95395339   -9301.6462    -94.34109     310.9927 
    1760    0.9548377   -9299.7681    98.387695    311.75246 
    1770   0.95543341   -9298.5449    257.93618    310.07498 
    1780   0.95522544   -9298.0542    223.62262    308.04292 
    1790   0.95425781   -9297.7085    48.677536     306.6576 
    1800   0.95305694   -9297.1537   -79.876394    303.85472 
    1810   0.95208881   -9296.3876   -213.98129    305.92067 
    1820   0.95174772   -9295.4567   -186.05892    308.36544 
    1830   0.95199419   -9295.0757   -19.308189    304.86193 
    1840   0.95235774   -9295.2344    89.524344    299.81214 
    1850   0.95247526   -9295.5928    89.657982    298.39107 
    1860   0.95230533    -9296.252    36.075684    301.83962 
    1870   0.95199572   -9296.7174   -36.205768    300.15444 
    1880    0.9518178    -9296.915   -201.53849    303.85205 
    1890   0.95228497   -9297.1711   -239.92082    309.55333 
    1900   0.95353518   -9298.1101   -16.988377    307.11312 
    1910   0.95497677   -9299.8484    154.83697    303.72386 
    1920   0.95599687   -9301.9912     203.9235    303.58356 
    1930   0.95640058   -9304.3628    100.15453    306.19534 
    1940   0.95645229   -9306.8185   -2.1049078    307.28314 
    1950   0.95645831   -9309.4498    32.810901    303.86828 
    1960   0.95638685   -9312.7456    28.116675    307.08887 
    1970   0.95615695   -9316.2363    125.34457    301.68717 
    1980   0.95557762   -9320.4305   -26.478891    308.40285 
    1990   0.95495762   -9324.5187    29.744213     304.4809 
    2000   0.95424326   -9329.0609    42.394751    299.74328 
    2010   0.95334834   -9333.7506   -25.693497    302.10715 
    2020   0.95245756   -9338.4216   -41.682984    299.27991 
    2030   0.95167446   -9342.9762   -69.034163    294.83043 
    2040   0.95112226   -9347.4778   -184.97825    300.53732 
    2050   0.95108602   -9351.9072   -86.729243     301.4055 
    2060   0.95134632   -9356.4682    71.868848    294.77992 
    2070   0.95147468   -9360.9986   -40.805147    300.11563 
    2080   0.95168014   -9365.0054   -6.3612842    297.40934 
    2090    0.9519866   -9369.2622     -80.1476    303.10314 
    2100   0.95251011   -9373.3704    37.498965    299.15357 
    2110   0.95301654   -9377.4947    28.111814    297.28908 
    2120   0.95344471   -9381.2748    4.5679993    299.10767 
    2130   0.95386348    -9384.934    34.607308    297.65069 
    2140   0.95419797    -9388.245    31.905475    296.45114 
    2150    0.9544615   -9391.3065    4.3162554    295.29801 
    2160   0.95473082   -9394.1118   -2.3683358    295.32914 
    2170   0.95503983   -9396.5206   -40.990426    297.13248 
    2180   0.95548788   -9398.7382   -15.407861     297.8546 
    2190   0.95599821   -9401.0343    104.71623    296.36715 
    2200   0.95619799   -9403.4793    178.54106    293.17231 
    2210   0.95586596   -9405.5822    17.658301    291.58336 
    2220   0.95547238   -9407.0355   -242.92095      299.609 
    2230    0.9557607   -9407.9905   -132.96089    301.76458 
    2240   0.95650327   -9409.3717    106.31922    297.50161 
    2250   0.95698055   -9411.2706    208.14717    295.14475 
    2260   0.95678242   -9413.1878    190.19636     293.3774 
    2270   0.95597942   -9414.8539   -80.975676    296.00839 
    2280   0.95535257   -9415.4045   -227.01708    300.10208 
    2290   0.95538238   -9416.0773   -46.962836    297.30627 
    2300   0.95564747   -9417.0302    6.6501132    296.94104 
    2310   0.95591514    -9417.959   -7.2501587    302.91107 
    2320   0.95612891   -9418.9576    198.64346    293.98777 
    2330    0.9558202   -9420.2837    50.934087    291.19301 
    2340   0.95529888   -9420.8344   -104.30818    293.24016 
    2350   0.95507144   -9420.9556   -91.408894    291.47143 
    2360   0.95514437   -9421.2061   -38.391658    297.09167 
    2370   0.95529409   -9421.4139    171.80307    289.94896 
    2380   0.95496575   -9421.9233     102.8239    285.72294 
    2390   0.95430638   -9421.7427   -159.94828    290.29979 
    2400   0.95408579   -9420.6908   -250.84878    295.89787 
    2410   0.95466017   -9419.6382   -127.80648    297.87181 
    2420   0.95570329   -9419.0017    73.379861    298.26242 
    2430   0.95658251   -9418.7744    203.22809    300.85438 
    2440   0.95684164   -9418.7238    172.57181    300.98734 
    2450   0.95656818   -9418.5732   -67.712194    304.33162 
    2460   0.95643597   -9418.0784   -120.31524    307.96215 
    2470   0.95665889   -9417.9154    54.815774    301.80983 
    2480   0.95673934    -9418.315    162.19765    298.70162 
    2490   0.95630525   -9418.9893    87.716594    299.94708 
    2500   0.95553295   -9419.5078   -27.617598     299.6697 
    2510   0.95478802   -9419.7012   -49.887406     295.4956 
    2520   0.95420311   -9419.7416   -109.58952    294.62758 
    2530   0.95396251   -9419.5293   -159.96766    299.11145 
    2540   0.95421746   -9419.3226   -79.005993    302.22038 
    2550   0.95473402   -9419.5266    118.37361    296.37093 
    2560   0.95495683   -9420.0974    108.16396    295.74181 
    2570   0.95481313   -9420.5836    50.915518    298.61829 
    2580   0.95448251   -9420.8872    24.407017    294.83653 
    2590   0.95408691   -9420.9627   -102.67783    295.37945 
    2600   0.95398018   -9420.8846   -114.08139    295.00693 
    2610   0.95423645   -9420.7138    5.4173858    290.96987 
    2620   0.95451177   -9420.5704    77.600537    293.82419 
    2630   0.95450921    -9420.512    156.84985    291.51417 
    2640   0.95401066     -9420.32    85.811171    289.20647 
    2650    0.9531957   -9419.5589   -59.717872    291.98968 
    2660   0.95247712   -9418.2543   -69.938217    293.54794 
    2670   0.95196254    -9416.726   -61.193724    294.25488 
    2680     0.951608   -9414.9726   -25.913793    296.10723 
    2690   0.95132033   -9413.1257    12.639925    294.54411 
    2700   0.95099952   -9411.0329   -31.176314    294.19107 
    2710   0.95075729   -9408.5936  -0.52354004    287.45613 
    2720   0.95052701   -9405.5704    13.539996    282.74444 
    2730   0.95029045   -9401.9968   -131.63969    291.06197 
    2740   0.95040888   -9397.3307   -88.166174    293.93718 
    2750   0.95085148   -9392.4706   -35.650138    299.02289 
    2760   0.95140546   -9387.2233    96.606909     299.2137 
    2770   0.95171386   -9382.1981    114.61662    302.54677 
    2780   0.95161212   -9377.0305     162.4527    300.00764 
    2790   0.95099463   -9371.8797    66.855733    298.58303 
    2800   0.95012034   -9366.3886   -111.90754    297.93625 
    2810   0.94956105    -9360.352   -185.50382    297.87818 
    2820   0.94957683    -9354.396   -102.42418    298.56133 
    2830   0.94995161   -9348.7053    -5.187659    297.23447 
    2840   0.95039794   -9343.4741    15.865527    299.70641 
    2850    0.9508119   -9338.3351    35.236895    296.75286 
    2860   0.95120866   -9333.4049   -133.52887    300.85673 
    2870   0.95200736   -9328.7211   -97.299039    309.29594 
    2880   0.95310119    -9324.689    225.72046    301.37945 
    2890   0.95362671   -9321.8164     192.9622    302.79796 
    2900   0.95347634   -9318.9112    181.65401    297.51934 
    2910   0.95274031   -9316.5588    74.507161     293.9118 
    2920   0.95169527   -9313.9463   -47.178202    295.88828 
    2930   0.95073687    -9311.293   -125.28553    296.67721 
    2940    0.9501752   -9308.4206    -269.7244    304.10726 
    2950   0.95040499   -9305.6808   -120.77351    305.08876 
    2960   0.95107381   -9303.6606    88.888571    299.54595 
    2970   0.95157032   -9302.2862    27.345652    303.50652 
    2980    0.9519883   -9300.8792   -35.858447    308.63401 
    2990   0.95251123   -9299.7807    21.735926    308.82806 
    3000   0.95302255   -9299.3192    35.822373     305.7793 
    3010   0.95346428   -9298.9695    2.0936325    304.81431 
    3020   0.95392383   -9298.8003   -19.703546    306.13577 
    3030   0.95447176   -9298.9909   -42.522944    311.84157 
    3040   0.95511117   -9299.4932    181.97926    306.59893 
    3050   0.95524093   -9300.8464    257.01879    299.97248 
    3060   0.95456415   -9302.1955    59.069425     296.6911 
    3070   0.95363965   -9302.9293   -161.87662    299.63604 
    3080   0.95312328   -9303.1698   -118.93021    300.68719 
    3090    0.9530039   -9303.8069   -79.223874    303.66405 
    3100   0.95311783   -9304.5548    10.446172    304.90989 
    3110    0.9532179   -9305.6777    75.498964    301.57206 
    3120   0.95311963   -9306.9822   -14.861404    301.33959 
    3130   0.95303957    -9308.279   -12.927993    299.88223 
    3140   0.95299562    -9309.683    22.223411    297.60283 
    3150   0.95290327   -9311.1087   -72.097974    305.62846 
    3160   0.95295638   -9312.5353    47.859273    302.67178 
    3170    0.9529333   -9314.3008   -14.322325     303.2401 
    3180   0.95295357   -9316.1255   -92.998681    305.70056 
    3190   0.95322805   -9318.0262    66.489221    298.22086 
    3200   0.95336024   -9320.2622    70.984604    298.49342 
    3210   0.95325966   -9322.5183    -1.775679    299.92184 
    3220   0.95310351   -9324.6858    61.400688    297.06906 
    3230   0.95274475   -9326.8875    116.27208    289.41841 
    3240   0.95207801   -9328.8104   -144.80927    292.37172 
    3250   0.95181241   -9329.9281   -276.60378    298.92025 
    3260   0.95242478   -9331.1359    -161.2437    301.88976 
    3270   0.95362072   -9333.0327    52.786392    301.42288 
    3280   0.95472633   -9335.1954    227.95331    295.23042 
    3290   0.95520343   -9337.5225    94.476956    298.01145 
    3300   0.95535675   -9339.3493   -7.0742727    300.33053 
    3310   0.95550176   -9341.3059    79.132785    291.99511 
    3320    0.9554886   -9343.2913   -81.567592    295.08634 
    3330   0.95570124   -9344.6833   -160.66149      297.982 
    3340   0.95644094   -9346.2307    -103.7433    302.52495 
    3350   0.95750896   -9348.0134    165.90451    298.69393 
    3360   0.95814998    -9350.427    260.92248    295.64226 
    3370   0.95797071   -9352.8085    178.20224     292.4889 
    3380    0.9571992   -9354.9356   -25.775799    291.71701 
    3390   0.95644442   -9356.2338   -179.88115    294.41192 
    3400    0.9562039   -9357.2155   -152.55603    296.04495 
    3410   0.95647739   -9358.5796   -79.104109    302.63503 
    3420   0.95696855   -9360.2727    168.15976    296.42526 
    3430    0.9570434   -9362.3803    105.79856    292.55859 
    3440   0.95676254    -9364.033   -49.013707    296.37446 
    3450   0.95657179   -9365.4401   -51.866623     299.7252 
    3460   0.95651004   -9366.9673    55.133141    296.99845 
    3470   0.95630638   -9368.7988    50.857813    294.78934 
    3480    0.9559549   -9370.4753   -90.667734     293.5451 
    3490   0.95589092   -9371.7529   -211.77871    297.47305 
    3500   0.95648889   -9372.8977   -120.63352    298.37247 
    3510   0.95757246   -9374.6187   -19.063468    300.39338 
    3520   0.95876705   -9376.7241      159.122    299.68243 
    3530   0.95950964   -9379.3259    237.89037     296.1322 
    3540   0.95957179   -9381.8937   -9.1332714    296.59983 
    3550   0.95962078   -9384.0428   -169.21591    302.91813 
    3560   0.96015687   -9386.4682   -2.6369262    303.17943 
    3570   0.96076906   -9389.7296    126.37069    302.26372 
    3580   0.96103882   -9393.4422    90.664307    302.64098 
    3590   0.96097811    -9397.778    105.54387    304.07892 
    3600   0.96054887     -9402.39     84.70739    298.65566 
    3610   0.95988842   -9407.1515   -198.34648    302.98865 
    3620   0.95974205   -9411.8436   -145.55043    301.05387 
    3630   0.96009403   -9417.3108   -17.622234    299.23448 
    3640   0.96055593   -9423.3071    34.098255    299.22971 
    3650   0.96094562   -9429.5755    37.788086    296.94144 
    3660   0.96120381   -9435.8213    108.93079    293.07724 
    3670   0.96112272   -9442.2515    134.30438    292.70796 
    3680    0.9606065   -9448.4434    15.654288    291.57716 
    3690   0.96000317   -9453.9557   -102.50702    291.98789 
    3700   0.95967514   -9458.7981   -65.561168    291.18782 
    3710   0.95955043   -9463.4932    8.0183029       289.45 
    3720   0.95943197   -9467.4926   -55.404946     290.5927 
    3730   0.95943403   -9471.1699    -5.107249    292.60728 
    3740   0.95943127    -9474.433    111.77797    286.61477 
    3750   0.95912658   -9477.4226   -5.9515667    287.80635 
    3760   0.95880674   -9479.4064   -80.772802    287.65542 
    3770   0.95875523   -9480.9305   -135.70224    292.87403 
    3780   0.95909086   -9482.1895    16.165502    292.54256 
    3790   0.95942804    -9483.494    79.127658    292.83128 
    3800   0.95953839   -9484.5588    40.936656    292.50365 
    3810   0.95949712   -9485.2985    56.910928    285.63712 
    3820    0.9593295   -9485.7006    -83.73015    291.35629 
    3830   0.95934013   -9485.7738    5.8463246    293.00265 
    3840    0.9593407   -9485.8554    112.94239    287.08771 
    3850   0.95902447   -9485.7642   -21.488099    292.80042 
    3860   0.95865942   -9485.2077    51.606018    290.80473 
    3870   0.95812126   -9484.7913    103.53203    284.30934 
    3880   0.95727336   -9483.9833    -82.63084    285.16564 
    3890   0.95663735   -9482.3376   -206.92469    291.93425 
    3900   0.95657267   -9480.4362   -27.655998    290.13781 
    3910   0.95667343   -9478.8625    13.706407    287.45984 
    3920   0.95679764   -9476.9906    -154.7687    289.47043 
    3930   0.95744143   -9474.6214   -247.26126     296.9074 
    3940   0.95887049   -9472.5035    17.901627    299.66983 
    3950   0.96029529   -9471.1314    401.61482    293.76175 
    3960   0.96057568   -9470.3279    340.83486    287.55109 
    3970   0.95977405     -9469.03   -12.851399    288.49641 
    3980    0.9588807    -9466.603   -166.01881    293.25442 
    3990   0.95848386   -9463.7512   -242.17397    298.46011 
    4000   0.95888286   -9460.9129   -237.40566    304.10304 
    4010   0.96003073   -9458.5967    107.86056    298.12834 
    4020   0.96096053   -9457.2419    299.53413    296.14677 
    4030   0.96092646   -9456.1688    321.10851    292.45219 
    4040   0.95986851   -9455.0035    44.810246    290.14136 
    4050    0.9586007   -9452.7726   -287.16428    294.75662 
    4060   0.95813079   -9449.7708    -270.3691    297.89563 
    4070   0.95855136   -9447.1785   -100.74447    298.32511 
    4080   0.95934977   -9444.9834    93.349091    293.09652 
    4090   0.95992933   -9443.2755    151.47498    291.37915 
    4100    0.9600491   -9441.3434     103.2055    287.11033 
    4110   0.95989285    -9439.041   -155.58943    295.57004 
    4120   0.96011116   -9436.0818   -49.222142    299.22125 
    4130   0.96053641   -9433.6788    103.19603    292.27297 
    4140   0.96074352   -9431.3901    -50.93399    297.79731 
    4150   0.96106502   -9428.6709   -36.673971    300.54313 
    4160   0.96152651   -9426.3686    34.453614    301.90708 
    4170    0.9619234   -9424.4288    45.065494    302.87104 
    4180   0.96216598   -9422.5394     139.9918    295.65346 
    4190   0.96201769   -9421.0999    87.740041    296.09507 
    4200   0.96148862   -9419.4826    103.76145    294.99766 
    4210   0.96059902   -9418.0799    9.8421173    294.70906 
    4220   0.95962958   -9416.1724   -150.45659    294.98833 
    4230    0.9591162   -9413.6927   -253.76065    297.56919 
    4240   0.95940814   -9411.1969   -210.04615    302.10547 
    4250   0.96041107   -9409.1708   -22.668074    305.41942 
    4260   0.96156573   -9407.7542    160.94601    304.88092 
    4270   0.96226802   -9406.9995    228.92723     303.4279 
    4280   0.96222134   -9406.4388    216.40199    298.68365 
    4290   0.96148145   -9406.0382   -2.4045675    301.38547 
    4300   0.96062314   -9405.0718   -55.050206    299.94374 
    4310   0.95990699   -9404.1399   -46.365596    296.30025 
    4320   0.95932495    -9403.195    -33.49738    297.51217 
    4330    0.9588151   -9402.3323    19.702768    295.62343 
    4340   0.95822847   -9401.6916     17.00813    293.76745 
    4350   0.95757564   -9400.7294   -92.769765    297.15326 
    4360   0.95719612   -9399.5085   -199.64699    303.18039 
    4370   0.95742195   -9398.0679   -83.973803    299.35888 
    4380   0.95799408   -9397.1614    5.5174736    296.28315 
    4390   0.95862051   -9396.3088   -5.2296768    296.56284 
    4400   0.95930846    -9395.374   -29.090467    298.25982 
    4410   0.96007511   -9394.6212    119.48846    296.82706 
    4420   0.96049679   -9394.1248    236.43425    290.64567 
    4430   0.96020866   -9393.7436    59.149447    296.76342 
    4440   0.95964772   -9392.7042   -90.860978      300.068 
    4450   0.95932248   -9391.3376   -107.11831    297.16224 
    4460   0.95938276   -9390.0997   -131.62814    299.03718 
    4470   0.95984698   -9388.9247   -4.5038394    298.70344 
    4480   0.96039865   -9387.9277    42.205999    302.37322 
    4490   0.96080081   -9387.1635    128.63122    302.88952 
    4500   0.96082004   -9386.8244    114.71093    300.23483 
    4510   0.96047117   -9386.4147   -4.9085242    299.74356 
    4520   0.96012329   -9385.7086   -122.64021    300.90891 
    4530   0.96012617   -9384.8881   -83.181464    306.48248 
    4540   0.96035144   -9384.6304    154.75609    302.11726 
    4550   0.96011389   -9384.9805    207.06023    297.53864 
    4560   0.95918332   -9385.2479    85.927341     291.6174 
    4570   0.95794013   -9384.9864   -149.32271    294.87387 
    4580   0.95704988   -9383.9495   -152.06244    295.40386 
    4590   0.95660283   -9383.0628   -29.215746    291.89826 
    4600   0.95628038   -9382.2825    -41.74009    296.38409 
    4610   0.95604689   -9381.2006   -6.1407389    297.82494 
    4620   0.95586898   -9380.0308   -71.243094    296.53542 
    4630   0.95592914   -9378.6745   -147.47274    301.67397 
    4640   0.95642016    -9377.218    16.826876    301.53393 
    4650   0.95693476    -9376.094    91.954549    298.10444 
    4660   0.95722206   -9375.0784    31.807742    302.59377 
    4670   0.95735074    -9373.837    138.94253    300.11642 
    4680   0.95705591   -9372.8539    111.20746    298.55569 
    4690   0.95635706   -9371.6023    -12.62989    301.00285 
    4700   0.95561431    -9369.784   -67.346298    301.39372 
    4710   0.95503727   -9367.6663   -24.500089    291.63182 
    4720   0.95461907   -9365.2734   -202.21666    297.57589 
    4730   0.95475716   -9362.0519   -81.919877    303.26752 
    4740   0.95516405   -9359.0327    148.88467    298.94242 
    4750   0.95517595   -9356.1276    103.42712    296.19734 
    4760   0.95485154   -9352.6626   -12.817502    292.77904 
    4770   0.95452905   -9348.4557   -59.303603    296.37612 
    4780   0.95436717   -9343.5347   -32.094934    293.91179 
    4790   0.95437667   -9338.3363   -191.98569    303.91945 
    4800   0.95493164   -9332.6016   -67.426898      304.772 
    4810    0.9557565   -9327.2618    159.53069    297.65649 
    4820   0.95619929   -9322.3484    107.43549    300.16377 
    4830   0.95624756   -9317.0591    101.79389     302.0458 
    4840   0.95595396   -9311.9711    77.877263    302.96752 
    4850   0.95534768   -9306.9842    52.734528    302.06467 
    4860   0.95453604   -9302.2464   0.77036077     297.8528 
    4870   0.95369855   -9297.4824   -124.97124    296.11081 
    4880   0.95325366   -9292.2572   -255.63974     300.5327 
    4890   0.95359657   -9287.0401   -195.60427    309.42358 
    4900   0.95462368   -9282.5993   -42.246462    312.08128 
    4910   0.95587556   -9279.1396    91.809417    312.99478 
    4920      0.95688   -9276.6418    251.16834    309.30868 
    4930   0.95715788   -9274.8397    153.52827    310.96565 
    4940   0.95688955   -9273.0817    51.522849    311.46816 
    4950   0.95642558   -9271.8144   -6.6083831     310.9825 
    4960     0.955912   -9270.7493    50.425901    305.99504 
    4970   0.95523601   -9270.2754    7.6931074    305.29235 
    4980   0.95449608   -9269.8289   -76.860978    302.73831 
    4990   0.95401841   -9269.0382   -214.72005    303.80427 
    5000   0.95418921    -9268.314   -131.50164    306.28013 
    5010   0.95483745    -9268.378   -12.926068     311.4644 
    5020   0.95552674   -9268.9721    165.40333    311.24618 
    5030   0.95570508   -9270.3488    268.79733    304.94188 
    5040   0.95500804   -9272.1457     208.8089    298.93499 
    5050   0.95360322   -9273.8774   -31.349532    296.97641 
    5060    0.9522377   -9274.7091   -371.19528    305.02016 
    5070   0.95193706   -9275.0463    -322.1707    309.04595 
    5080   0.95268647   -9276.1447   -48.529001    303.53632 
    5090   0.95377586   -9278.1471   -58.793532    309.01464 
    5100   0.95508331   -9280.3814    51.312565    309.64617 
    5110   0.95631273   -9283.2247    184.39746    305.17426 
    5120   0.95700594   -9286.4926    239.33989    299.68682 
    5130    0.9569999   -9289.7506    21.478137    300.92856 
    5140   0.95687273    -9292.559   -116.74812    305.40471 
    5150   0.95705971   -9295.4345    33.401298    302.44515 
    5160   0.95720921   -9298.8789    33.438477    303.50854 
    5170   0.95726653   -9302.3864   -40.743567    304.00252 
    5180   0.95744883    -9305.657    -34.91192    301.11415 
    5190   0.95777978   -9309.1934   -48.662263    303.30532 
    5200    0.9582597   -9312.8219    14.872381    301.42886 
    5210   0.95876613   -9316.6944   -18.670578    304.03231 
    5220   0.95932581    -9320.617    41.313991    305.91628 
    5230   0.95978567   -9324.7676    129.53343    302.98737 
    5240   0.95984129   -9329.3523    135.42915    306.89907 
    5250   0.95939351   -9333.8704    153.96031    301.62341 
    5260   0.95845872   -9338.3413   -23.199751    299.90543 
    5270   0.95750891   -9342.2108   -152.34857     304.0616 
    5280   0.95697864   -9345.7011   -134.50995    302.17931 
    5290   0.95690425   -9349.0352   -92.217846      294.684 
    5300   0.95718347   -9352.2552   -95.396027    293.13859 
    5310   0.95783498   -9355.1601   -136.78847    298.38163 
    5320   0.95894847   -9357.9996   -42.306595    301.97586 
    5330   0.96026361   -9361.2551    126.87238    302.02001 
    5340   0.96122494   -9364.5805    261.48079     300.2292 
    5350   0.96137106   -9367.8267    257.67223    295.20026 
    5360    0.9606804   -9370.9513    48.292988    298.59438 
    5370   0.95973286   -9373.2972   -75.157911    298.78166 
    5380    0.9589985   -9374.9653   -170.52875    297.94529 
    5390   0.95879026   -9376.5266   -130.92691    297.30146 
    5400   0.95898896   -9378.2028    16.176406    298.33024 
    5410   0.95913861   -9380.2359    142.29469    297.86921 
    5420   0.95885141     -9382.24    125.47961    292.07941 
    5430   0.95819682   -9383.8854   -153.12845    297.94957 
    5440   0.95795051   -9384.6962   -237.55844    302.02428 
    5450   0.95848845   -9385.6627   -185.79839    306.79758 
    5460   0.95962732   -9386.9323    109.18274    300.84142 
    5470   0.96054749   -9388.8508    216.61223    297.91988 
    5480    0.9608368   -9390.9243    17.303468    308.12664 
    5490   0.96095531   -9392.4303    103.72451    298.88763 
    5500   0.96083354   -9394.4738    -23.12226    303.17051 
    5510   0.96067731   -9396.2381    60.548714    303.06113 
    5520   0.96031562   -9398.3183    159.58164    295.78656 
    5530   0.95943927   -9400.5702    70.121059    298.38895 
    5540   0.95823172    -9402.452      19.0755    292.61908 
    5550   0.95697548   -9403.9369   -242.33867    296.74202 
    5560   0.95636025   -9404.7229   -161.13476    298.17137 
    5570   0.95625697   -9405.7184    49.265382    288.37599 
    5580   0.95607498   -9406.9472    10.112788    292.05065 
    5590     0.955775   -9407.7965     73.74546    290.15164 
    5600   0.95525603   -9408.4896   -15.186495    289.37752 
    5610   0.95476222    -9408.774   -138.07501    292.64971 
    5620    0.9546741   -9408.4899   -123.67807    292.19282 
    5630   0.95502013   -9408.2212   -65.510036     292.7521 
    5640   0.95559869   -9407.9504     23.44655    293.77303 
    5650   0.95612535   -9407.8838    100.45359    292.63102 
    5660   0.95637854    -9407.581    58.266936    289.69198 
    5670   0.95649101   -9407.0267   -103.64987    294.71789 
    5680   0.95689644   -9405.8813    -58.30487    295.67812 
    5690   0.95756215   -9404.8906   -48.308741    298.47765 
    5700   0.95840553   -9404.0496    42.178888    301.85436 
    5710   0.95913003   -9403.3574     198.1712    300.98885 
    5720   0.95927111   -9403.1837    180.52271    297.61794 
    5730   0.95883545   -9402.8956     29.30448    298.64594 
    5740   0.95821517   -9402.3307   -5.3330586    296.94467 
    5750   0.95759726   -9401.6441   -16.316077    290.49767 
    5760   0.95701746    -9400.644   -78.502957    292.28742 
    5770   0.95664582   -9399.2954   -64.782945    293.92952 
    5780    0.9564471   -9397.9787      37.1356    291.07643 
    5790   0.95614198    -9396.768    68.848475    289.67575 
    5800   0.95561702   -9395.2121   -15.060603    288.52673 
    5810    0.9551146   -9392.8806   -132.45796      285.445 
    5820    0.9550993   -9389.9055   -381.50709    295.20707 
    5830   0.95625437   -9386.5236   -222.56608    300.55631 
    5840   0.95822462   -9384.0216    160.00477    300.16877 
    5850   0.95981263   -9381.8411    371.72353    298.67762 
    5860   0.96030721   -9379.6072    250.20203    296.53688 
    5870   0.95996412    -9376.933    25.655503    302.88181 
    5880   0.95944345   -9373.8041   -44.289244    305.11678 
    5890   0.95901136   -9370.9113   -17.281379    307.98714 
    5900   0.95858646   -9368.3025    100.85292    303.89209 
    5910   0.95784444   -9365.9442    44.863272    300.87429 
    5920   0.95693392   -9363.4983   -105.11569    302.98302 
    5930   0.95622866   -9360.7887    29.711059    296.84041 
    5940   0.95548249   -9358.4399   -48.272315     298.7049 
    5950   0.95483974   -9355.4394   -139.13308    303.57124 
    5960   0.95460554   -9352.2929    -60.66358    300.21132 
    5970    0.9545774   -9349.4304    74.042213    295.11617 
    5980   0.95433964   -9346.7014    99.757485    289.30496 
    5990   0.95382793   -9343.7034   -173.08287    303.17999 
    6000   0.95373093   -9339.6669    -133.0956     304.3993 
    6010   0.95411714   -9336.0331   -41.827251    304.00127 
    6020   0.95466479   -9332.9342    107.78297    305.08903 
    6030   0.95485303   -9330.0763    309.90207    295.45297 
    6040   0.95409681   -9327.6756    175.79636    297.21081 
    6050   0.95264633   -9324.5317    7.5183164    295.84078 
    6060   0.95112457   -9320.7697   -232.66671    296.71981 
    6070   0.95024707   -9316.0366   -246.25144    294.87337 
    6080     0.950184    -9311.173   -198.53076     295.9571 
    6090   0.95076888   -9306.3797   -58.788115    300.28027 
    6100   0.95163613   -9301.8425   -5.8325976    304.42355 
    6110    0.9526047   -9297.1766   -31.730288    304.91008 
    6120   0.95371398   -9292.6712    63.746542    300.02223 
    6130   0.95469869   -9288.5128    118.59224    303.13992 
    6140   0.95530695   -9284.4303    160.84065    307.59196 
    6150   0.95537909   -9280.5851    173.74207    306.81073 
    6160   0.95488379   -9277.1533    112.93066    301.87459 
    6170   0.95402931   -9273.7343   -92.087716     307.3452 
    6180    0.9533596   -9269.9561    -137.9999    314.06395 
    6190   0.95307173   -9266.7744   -33.151784     313.5174 
    6200   0.95292659    -9264.386   -26.300972    315.14494 
    6210   0.95283243   -9262.4987     67.88947    311.68954 
    6220   0.95254074   -9261.4932    80.590239    310.95503 
    6230   0.95192485    -9260.724    90.056175    304.85761 
    6240   0.95102931   -9260.3206   -92.647376    307.62279 
    6250   0.95034646   -9259.4503   -170.58904    310.19222 
    6260   0.95018937   -9259.0176   -109.26539    309.16805 
    6270   0.95037142   -9259.1363    74.388064    304.08026 
    6280   0.95038225   -9259.8764     107.6474    304.16498 
    6290   0.95002476   -9260.9771    23.575801    306.50626 
    6300   0.94958597   -9261.7779   -133.82681    308.57224 
    6310   0.94953853   -9262.6252   -158.17755    310.80375 
    6320   0.94999525   -9263.9743   -11.298549     308.8953 
    6330   0.95054083   -9265.9139    78.418506    309.87522 
    6340   0.95086585   -9268.2227    77.738524    308.31231 
    6350   0.95094009   -9270.6649     58.57749    306.99063 
    6360   0.95082282    -9273.439    42.618789    303.69628 
    6370    0.9505782   -9276.2978   -16.185568    302.41936 
    6380   0.95033898   -9278.9459    44.885807    298.03473 
    6390   0.94995387   -9281.7093    52.588863    292.45444 
    6400   0.94939602   -9284.0558   -91.594705    292.93644 
    6410   0.94914126   -9285.7497   -312.24697    299.80653 
    6420   0.94984637   -9287.2539    -193.5467    305.67158 
    6430   0.95119604   -9289.3701     186.8117    299.73831 
    6440   0.95215698   -9291.6143    120.26366     301.5125 
    6450   0.95273129   -9293.7333    26.918025    310.66311 
    6460   0.95313293   -9295.9428    207.68648    305.02531 
    6470   0.95294908   -9298.4167    93.324901     303.5146 
    6480   0.95243359   -9300.4207   -68.609702    300.54979 
    6490   0.95214427   -9301.9891    -233.9363    306.76118 
    6500    0.9525475   -9303.3619   -131.17429     309.5003 
    6510   0.95343581   -9305.1964    15.625582    308.03858 
    6520   0.95436402   -9307.2363    72.359335    306.68484 
    6530   0.95511696   -9309.3496    81.592591    307.47181 
    6540    0.9556241   -9311.4165    102.68244    304.96447 
    6550   0.95583962   -9313.4196    35.516108    300.90036 
    6560   0.95597233   -9315.1263     -84.5934    304.13531 
    6570   0.95635236   -9316.4783   -44.877993    301.65077 
    6580   0.95693718    -9318.142   -70.518313    308.13932 
    6590   0.95771218    -9319.947    129.23211    305.51383 
    6600   0.95815769   -9322.0843    190.62902    299.05739 
    6610   0.95805344   -9324.2046   -2.1529614    302.56503 
    6620   0.95786905   -9325.8121   -35.205841    302.28936 
    6630   0.95777793   -9327.4296   -2.5336119     302.2864 
    6640   0.95771946   -9329.0901   -7.7990323    300.29508 
    6650   0.95771459   -9330.7566   -86.782913    304.45842 
    6660   0.95795813    -9332.392   -54.162183    309.25027 
    6670   0.95839481   -9334.5008   -2.5694279    310.88946 
    6680   0.95884197   -9337.0288    104.05115    308.27454 
    6690   0.95897672   -9339.9638     211.3968    301.46958 
    6700    0.9584391   -9343.1683     131.4112    300.17913 
    6710   0.95741979   -9346.2461   -56.672173    302.25454 
    6720   0.95649776   -9348.8898   -152.56795    302.61677 
    6730   0.95603153    -9351.337   -165.16746    304.62632 
    6740   0.95606636   -9354.0528   -29.873539    303.68142 
    6750   0.95618851   -9357.1644    165.86473    295.95868 
    6760   0.95587333   -9360.4679    2.8455699    297.11737 
    6770   0.95550028   -9363.0634   -151.14164    297.71327 
    6780   0.95559772   -9365.4128   -146.01124    297.72444 
    6790   0.95619534   -9368.0126   -83.358303    301.48167 
    6800   0.95710075   -9370.8091    36.662457    302.21769 
    6810   0.95796245    -9374.016    92.933901    304.71416 
    6820    0.9585403   -9377.1562    183.13831    299.55523 
    6830   0.95857429   -9380.5333    142.01004    296.97367 
    6840   0.95811129   -9383.9292    45.887116    302.99195 
    6850   0.95740284   -9387.1244    73.207487    298.20684 
    6860   0.95642351   -9390.2524    35.987141    293.94654 
    6870   0.95528572   -9393.1697   -93.140276    297.50525 
    6880    0.9543489   -9395.6979   -143.73701     301.4911 
    6890   0.95383215   -9398.3132   -110.92047    301.00275 
    6900   0.95365183   -9401.0331    15.900565    296.22926 
    6910   0.95343618   -9403.8339    107.20847    286.13011 
    6920   0.95294176   -9406.2976   -75.204642    288.52774 
    6930   0.95263009   -9407.8458   -201.07226    293.68435 
    6940   0.95296621   -9409.2674   -208.04816    302.02984 
    6950   0.95393241   -9410.8846    111.53458    295.29759 
    6960    0.9547106   -9413.0279    113.13844    295.81605 
    6970   0.95513629   -9415.0711    23.757844    300.14256 
    6980   0.95547089   -9416.9178    26.331814    297.68018 
    6990   0.95577687    -9418.688   -43.950443    299.54524 
    7000   0.95622008   -9420.3682    -27.72283    299.80711 
    7010   0.95677867   -9422.2743    41.496342    299.40891 
    7020   0.95720191   -9424.2044    149.10293    296.33452 
    7030   0.95722967   -9426.4096   -23.646737    302.51641 
    7040   0.95725525   -9428.1895   -32.361994    299.77927 
    7050   0.95742331   -9430.0866   -4.2908168     297.4158 
    7060   0.95761459   -9432.0645    31.107914    298.43374 
    7070   0.95771478   -9434.1425    54.799362    295.86836 
    7080   0.95764935   -9436.1003    26.977522    293.64157 
    7090    0.9575085   -9437.8634   -45.528087    293.00133 
    7100   0.95753529   -9439.2343   -181.88895    297.79321 
    7110   0.95812586   -9440.5089   -128.48766    300.47054 
    7120   0.95913908   -9442.2243    159.70943      294.303 
    7130   0.95978629   -9444.1078    196.28363    287.92809 
    7140   0.95985862    -9445.865    6.6982632    295.19191 
    7150   0.95978264   -9447.1317    107.16823    292.52399 
    7160   0.95939682   -9448.6576    59.247112    291.45159 
    7170   0.95879074   -9449.6603   -105.85008    293.72877 
    7180   0.95847912   -9450.1038   -146.48756    293.79732 
    7190   0.95862377   -9450.5382   -62.524278    292.72686 
    7200   0.95901762    -9451.163   -24.516522    296.88916 
    7210   0.95950967   -9451.6966    39.701912    297.30324 
    7220    0.9599076   -9452.2726    80.628181    297.03475 
    7230    0.9600284   -9453.2152     165.2203     296.2449 
    7240   0.95957114   -9454.2084     238.2048    286.30868 
    7250    0.9583853   -9455.0317   -50.392416    283.73218 
    7260   0.95725653    -9454.541   -278.80107    289.03448 
    7270    0.9569515   -9453.2263   -254.02983    293.25879 
    7280   0.95748544   -9452.0116   -115.80705    297.41713 
    7290   0.95847811   -9451.0245    20.583429    297.78524 
    7300   0.95950354   -9450.3459    79.222074    297.28124 
    7310   0.96032003   -9449.7775    111.08496    300.05711 
    7320   0.96078047   -9449.2142    137.99602    304.04012 
    7330   0.96075412   -9448.7963    203.62799    298.99003 
    7340   0.96011907   -9448.4758     32.83354    294.75219 
    7350   0.95933251   -9447.5212    -127.0187    296.01444 
    7360   0.95886077   -9446.1964   -58.656332    300.36026 
    7370   0.95852861   -9445.0579    90.760775     294.8547 
    7380   0.95797218   -9444.2299   -56.998598    296.25331 
    7390    0.9575088   -9442.7798   -48.505577    292.44368 
    7400   0.95725824   -9441.0318   -164.98673    297.45458 
    7410   0.95750068   -9438.7988   -136.71126    300.19834 
    7420   0.95823229   -9436.5614   -13.146609    298.99564 
    7430   0.95907059   -9434.7914    76.398313    306.02754 
    7440    0.9596518   -9433.0512    235.84978    302.38481 
    7450   0.95955806   -9431.5498    90.861509    301.19987 
    7460   0.95912181   -9429.7631   -78.025786    303.92962 
    7470   0.95887649   -9427.6403   -90.199146    307.07165 
    7480   0.95887136   -9425.6464    80.471024    305.06049 
    7490   0.95861935   -9424.3253    204.52308    297.66518 
    7500   0.95772957   -9422.9344    40.215322    300.38359 
    7510   0.95660496   -9421.0451   -104.22084    306.56466 
    7520   0.95570204   -9418.9166    -65.91633    302.36851 
    7530   0.95501512   -9416.9079    -60.53675     299.0491 
    7540   0.95447911   -9414.8704    11.302429     296.9779 
    7550   0.95389009   -9412.9701    41.287174    292.31409 
    7560   0.95319705   -9410.5258   -139.52333    289.55121 
    7570   0.95294736   -9407.3655   -301.99295    297.76446 
    7580   0.95359078   -9403.7589   -79.562587     299.0846 
    7590   0.95459835   -9400.6169    117.60213    296.99769 
    7600   0.95531918   -9397.4776    147.85146    292.78552 
    7610   0.95564254   -9394.1247   -59.284837    298.92665 
    7620     0.956108     -9390.19    -74.69497    299.98879 
    7630    0.9568581   -9386.5035    36.734327    296.66658 
    7640   0.95755708   -9382.7366    68.031392    300.71047 
    7650   0.95805297   -9378.8746    95.462868    302.86187 
    7660   0.95825625   -9375.2111    114.40807    297.10718 
    7670   0.95814574   -9371.4822   -40.900791    299.72382 
    7680   0.95809794   -9367.4438   -56.680937    304.55129 
    7690   0.95820959   -9363.5969    42.083328    300.86308 
    7700   0.95819839   -9360.2906    91.996255    296.19552 
    7710   0.95793255   -9356.8138   -30.156863    294.83724 
    7720   0.95774781    -9353.004   -156.42112     301.8307 
    7730   0.95801295   -9349.1542   -73.638318    299.53832 
    7740   0.95863248    -9345.669   -145.20088    308.58493 
    7750   0.95967549   -9342.4131    115.14362    304.16242 
    7760   0.96046669   -9340.1579    233.66519    305.30303 
    7770   0.96048092   -9338.2309    261.46861    301.38679 
    7780   0.95968855   -9336.6166   -21.980073    308.32823 
    7790   0.95878731   -9334.3165    5.3392404    302.12129 
    7800    0.9578893   -9332.8172   -28.868065    299.68706 
    7810   0.95699334   -9331.1485    11.592191    299.91888 
    7820   0.95601132    -9329.763    34.796446    297.19989 
    7830   0.95490344   -9328.3438   -156.34631    302.25262 
    7840   0.95421849   -9326.3722   -219.81832    305.36752 
    7850   0.95419613   -9324.6716   -18.640061    301.83947 
    7860   0.95425588   -9323.7341    204.13134    292.12894 
    7870    0.9537481   -9323.0057    35.421353    294.91643 
    7880   0.95304816   -9321.7095     -123.343    298.09686 
    7890   0.95268633   -9320.0765   -132.04401    299.17363 
    7900   0.95272928     -9318.48   -40.823219    297.11943 
    7910   0.95298183    -9316.967   -82.058292    299.33164 
    7920   0.95352391   -9315.6355   -79.935419    306.13132 
    7930   0.95430554    -9314.606    138.39448    299.88765 
    7940   0.95478609   -9313.9966    64.081242    299.26435 
    7950   0.95504449   -9313.2462   -32.756974    304.24132 
    7960   0.95539575   -9312.4195    -17.78599    304.91388 
    7970   0.95581458   -9311.7817    69.356385    301.04143 
    7980   0.95606576   -9311.7053    48.871796    306.48091 
    7990   0.95608955   -9311.4431    164.84709    296.28928 
    8000    0.9556844   -9311.5392   -55.349197    302.87731 
    8010    0.9553127   -9311.2916    -16.72211    303.62978 
    8020   0.95504167   -9311.4338   -82.180439    308.17476 
    8030    0.9549563   -9311.6725    19.226428    308.12474 
    8040   0.95481905   -9312.4617    100.01033    306.32292 
    8050   0.95437771   -9313.8129   -28.661231    312.58407 
    8060   0.95396104   -9315.0558   -48.334504     303.9343 
    8070   0.95377302   -9316.6532   -212.95322    306.76268 
    8080    0.9542236   -9318.3808   -158.70633    314.75077 
    8090   0.95519287   -9321.0407    123.62118    306.98686 
    8100   0.95590821   -9324.4974    128.95382    304.86439 
    8110   0.95624589   -9328.2247    26.808955    301.81974 
    8120   0.95651387   -9331.8921   -86.790034    303.61516 
    8130   0.95706889   -9335.8408   -117.20231    309.34882 
    8140    0.9579969   -9340.6379    64.863692    310.46373 
    8150   0.95874277   -9346.2658    314.27873    303.30623 
    8160   0.95855599   -9352.6218    215.51764    299.60992 
    8170   0.95765897   -9358.6453    -130.2852    303.14009 
    8180   0.95705866   -9364.0559   -195.10016    302.66918 
    8190   0.95710444     -9369.66   -128.26555    300.01383 
    8200   0.95761251   -9375.3797   -67.328863    301.53078 
    8210   0.95837043    -9381.406    43.255001    304.06668 
    8220   0.95898816   -9387.3442    179.55544    299.59498 
    8230   0.95911527   -9393.1768    51.498478    299.67596 
    8240   0.95903297   -9398.1503   -40.004581    299.84867 
    8250   0.95907634   -9402.6882   -84.084411    299.57693 
    8260   0.95938863   -9406.6821   -25.771365    297.85328 
    8270    0.9598202    -9410.236     99.88088    291.18959 
    8280   0.96001165   -9413.4297    44.379872    291.58166 
    8290    0.9600401   -9415.7232    3.1094282    289.17224 
    8300   0.96009653   -9417.5534   -129.06487    294.37989 
    8310    0.9605119   -9418.7522   -70.989657    296.77738 
    8320   0.96121255   -9420.0597    42.046459    295.43171 
    8330   0.96181411   -9421.3853    145.01552    295.86215 
    8340   0.96196196   -9422.9325    217.26775    293.67966 
    8350   0.96140012   -9424.4173    91.786683    295.49264 
    8360   0.96048507   -9425.1713   -105.05923    294.93558 
    8370   0.95985644   -9425.0221   -207.73221    293.19689 
    8380   0.95989566   -9424.8964   -199.11006    295.23904 
    8390   0.96057948   -9424.8329   -12.642593     295.5914 
    8400   0.96139378   -9425.1116    68.488787    298.09989 
    8410   0.96203557   -9425.4353    60.600439    301.39822 
    8420   0.96250271   -9425.7849    59.691231    303.11481 
    8430   0.96276151   -9426.3549     114.5216    302.46169 
    8440   0.96263775     -9427.02    164.14413    298.39447 
    8450   0.96195846   -9428.0635    139.99387     294.5789 
    8460   0.96078677   -9428.8133   -2.6090978       292.76 
    8470   0.95957122   -9428.8786   -214.46429    297.02073 
    8480   0.95897129   -9428.3317   -279.40894    301.12566 
    8490   0.95927087   -9428.0899   -193.97119    301.06706 
    8500   0.96027602   -9428.1485   -64.572896    302.35729 
    8510   0.96155854   -9428.8599     116.6771    305.26115 
    8520   0.96247994   -9429.9969    352.57125    302.08535 
    8530   0.96232274   -9431.7739    276.04382     299.2773 
    8540   0.96125968   -9433.2352   -50.420315    298.71628 
    8550   0.96027526   -9433.7381   -252.63141    296.72516 
    8560   0.96005349   -9433.9501   -231.15082    299.96821 
    8570   0.96055663   -9434.3954    14.319265    295.01044 
    8580   0.96113645   -9435.4757    60.310526    296.05092 
    8590   0.96151173   -9436.1875    132.95317    289.85381 
    8600   0.96153444    -9437.041   -1.4430094    290.47867 
    8610   0.96153645   -9437.2337   -125.26088     293.8676 
    8620    0.9619186   -9437.2936   -68.605106    296.36989 
    8630   0.96252662   -9437.3948    135.62668    294.44324 
    8640   0.96275779   -9437.7404    173.93401    291.96006 
    8650   0.96246494   -9438.0562   -28.854237    297.86471 
    8660   0.96217528   -9437.6712   -79.845209    296.91002 
    8670   0.96212434   -9437.3979   -5.6496652    294.28035 
    8680    0.9620903   -9437.1907    103.61409    290.70667 
    8690   0.96176249    -9436.916    51.148177    291.23384 
    8700   0.96123431   -9436.1883   -31.160945    290.67679 
    8710   0.96077943   -9435.2417    -137.8332    297.80653 
    8720   0.96066827     -9433.97   -20.279747    299.45993 
    8730   0.96068625   -9432.9149   -18.333983    295.63625 
    8740   0.96079774   -9431.6926    -70.85296      298.632 
    8750   0.96109529   -9430.4914    90.871919    296.51259 
    8760   0.96112948   -9429.6327    174.66049    295.36712 
    8770   0.96059712   -9428.7605    100.31517     294.1298 
    8780   0.95970654   -9427.5072   -60.056761    296.40664 
    8790   0.95891297   -9425.8083    -96.23673    296.40026 
    8800   0.95837128   -9423.8897   -20.447956    294.26349 
    8810   0.95790009   -9422.0298   -20.590453    292.40438 
    8820   0.95752629   -9419.6727    -185.9876    298.84312 
    8830   0.95770184   -9417.0588   -154.86655    304.60433 
    8840   0.95835749   -9414.7878    76.736231    303.07194 
    8850   0.95886074   -9412.9828     150.0945    297.91852 
    8860    0.9589484    -9411.048    55.173085    295.42035 
    8870   0.95880771   -9409.0291    45.339441    297.26065 
    8880   0.95847983   -9406.7033    82.506434    292.54735 
    8890   0.95791751   -9404.1701   -87.619261    297.50317 
    8900   0.95753557   -9401.2416    -43.14541    296.20431 
    8910   0.95730846   -9398.1407   -42.202673    295.75566 
    8920   0.95717379    -9394.982    22.890006    298.26696 
    8930   0.95695673    -9391.869    102.42564    293.76164 
    8940    0.9564522    -9388.679   -27.190506    291.51061 
    8950   0.95601517   -9384.7826   -173.76976    294.87674 
    8960   0.95610446   -9380.6022   -197.95489    303.18099 
    8970   0.95683233   -9376.4836   -26.007261    301.67368 
    8980   0.95777324   -9372.7188    51.570346    299.66626 
    8990   0.95862487    -9369.097    80.200166    304.18252 
    9000   0.95915696   -9365.8143    305.14353    303.37932 
    9010   0.95869042   -9363.3471    396.14301    295.75587 
    9020   0.95695518    -9361.171     32.48022    294.71347 
    9030   0.95497165   -9357.7468   -323.28589    297.95351 
    9040   0.95390318   -9353.2824   -346.01838    298.02624 
    9050   0.95394625   -9349.1735   -191.49999    304.74396 
    9060   0.95457878   -9345.7603    181.52003    299.01284 
    9070   0.95474592   -9343.1997    214.06179    294.74986 
    9080   0.95423104   -9340.5184    23.474323     295.7699 
    9090   0.95358357   -9337.4251   -147.42897     302.4873 
    9100   0.95333506   -9334.0027   -113.93506    298.08452 
    9110   0.95356923   -9330.8882   -219.85698    300.64372 
    9120   0.95451489   -9327.8747   -150.66432    307.62458 
    9130   0.95601317   -9325.5579    83.456895    309.60593 
    9140   0.95731338   -9324.1114    323.72806     305.1899 
    9150   0.95764269   -9323.3316    327.69381    297.96923 
    9160   0.95692434   -9322.6177    52.270636    298.34326 
    9170   0.95594629    -9321.148   -171.45655    300.78119 
    9180   0.95543563   -9319.2021   -166.11397    299.92347 
    9190   0.95549169    -9317.537   -142.52703    301.35372 
    9200   0.95602726   -9316.1095   -67.416202    306.58331 
    9210   0.95680637   -9315.3423     81.61703    306.33079 
    9220   0.95737668   -9315.1719    152.96132    306.03732 
    9230   0.95747166   -9315.2591     150.7721    300.59432 
    9240    0.9571278    -9315.308   -71.400656    301.51574 
    9250   0.95697009   -9314.9088   -219.25987    313.70748 
    9260   0.95740754   -9315.1741    91.797891    309.80244 
    9270   0.95765724   -9316.2508    203.01236    302.82715 
    9280   0.95732345   -9317.6461   -26.433406    305.48093 
    9290   0.95695126   -9318.4662    11.360061    296.59116 
    9300    0.9565953   -9319.5531   -81.337879    300.41359 
    9310   0.95641678    -9320.377   -26.143943    299.84694 
    9320   0.95636516    -9321.316   -37.434311    297.56106 
    9330   0.95645286   -9322.0652   -94.802469    298.13064 
    9340   0.95688711   -9322.6912    -174.7976    306.41773 
    9350    0.9578366    -9323.731    50.528245    307.25059 
    9360   0.95868022    -9325.619    303.17074    298.52643 
    9370   0.95865075     -9327.57    184.99018    294.96724 
    9380   0.95802535   -9329.1818   -99.335162    298.83373 
    9390   0.95761365   -9330.0509   -155.98741    299.46327 
    9400   0.95773581   -9330.9301   -184.71012    302.88098 
    9410    0.9584557   -9331.9357   -68.781155    302.13154 
    9420   0.95949518   -9333.1832     18.58559     300.0431 
    9430    0.9605543   -9334.8739    55.823851    307.64013 
    9440   0.96138365   -9336.7608    299.57718    301.29358 
    9450   0.96136781   -9339.2808    154.55345    305.18704 
    9460   0.96072119   -9341.6056    121.52573     303.5459 
    9470   0.95964145   -9343.9263    43.793831    300.78509 
    9480   0.95837065   -9346.1072   -88.435331     299.0186 
    9490   0.95732788   -9347.7285   -165.96578    299.73376 
    9500   0.95671208   -9349.1764   -12.166193    297.57511 
    9510   0.95614332   -9351.0222    90.659867    295.13128 
    9520   0.95526985   -9352.7114    41.137334     291.5344 
    9530   0.95428799   -9353.6927   -208.31489    291.91258 
    9540    0.9539308   -9353.8954   -336.07343     300.1803 
    9550   0.95459437   -9354.1126   -75.603292    295.56357 
    9560    0.9556506   -9355.1355    25.972956    298.70856 
    9570   0.95661709    -9355.993     185.4638    297.95513 
    9580   0.95710235   -9357.0771    65.232696    300.36662 
    9590   0.95734769   -9357.8118    -22.01694    302.09197 
    9600   0.95763406   -9358.5266    121.17538    293.43977 
    9610   0.95758862   -9359.4831    85.585186    296.67636 
    9620   0.95720997   -9360.2041    41.711231    299.27463 
    9630   0.95665825   -9360.8161   -17.562749     300.9688 
    9640   0.95611643   -9361.2658   -81.941977    302.88605 
    9650   0.95580963   -9361.5114   -107.77539    303.38989 
    9660   0.95586572   -9362.2169   -112.49223    313.05298 
    9670   0.95618311   -9363.1258    261.77091    300.25369 
    9680    0.9558016   -9364.9345    167.56565    295.91108 
    9690   0.95483927   -9366.2261   -144.61822    305.29417 
    9700   0.95419295   -9366.7822   -119.48275    303.99081 
    9710   0.95394484    -9367.654   -59.309324    300.11167 
    9720   0.95391095   -9368.5772    -32.27163    299.69727 
    9730   0.95396409   -9369.5732    45.896711    298.18165 
    9740   0.95388026   -9370.5888    58.321875    296.43475 
    9750   0.95359467   -9371.5838    16.970995    296.09976 
    9760   0.95322746   -9372.3628   -61.522543    295.42107 
    9770   0.95306578   -9372.8261   -170.33553    296.04552 
    9780   0.95347264   -9373.0607   -176.72617    301.56957 
    9790   0.95445441   -9373.4814    51.510666    296.60898 
    9800   0.95544867   -9374.3959   -17.280226    306.21186 
    9810   0.95644855   -9375.3821    106.86216    305.54001 
    9820    0.9572283   -9376.6541     110.3195    298.43913 
    9830   0.95771902   -9377.7394    25.172679    296.90721 
    9840   0.95813142   -9378.7353    39.226824    296.00187 
    9850   0.95840826   -9379.8898     80.64335    300.99053 
    9860   0.95839767   -9380.8242    165.64269    291.71197 
    9870   0.95794009   -9381.7547    -88.49764    292.76421 
    9880    0.9576725    -9381.911   -167.83905    296.83887 
    9890   0.95791915   -9382.0952   -77.209388    299.69232 
    9900   0.95842793   -9382.4587    109.33065    296.97632 
    9910   0.95864541   -9383.3009     203.1796    291.16764 
    9920    0.9582724   -9383.8427    -40.59101     296.2622 
    9930   0.95799729   -9383.6546   -254.33193    300.11917 
    9940   0.95849806   -9383.3611   -183.99799    301.20871 
    9950   0.95965092   -9383.7541    3.4190498    305.67183 
    9960   0.96083882   -9384.5564    219.62813    300.66972 
    9970   0.96144907   -9385.7098    135.46132    299.16155 
    9980    0.9615952   -9386.7379    73.274839    300.78536 
    9990   0.96147334   -9387.6636    66.237066    297.89022 
   10000   0.96115788   -9388.4958   -42.251828    297.36782 
   10010   0.96095363   -9389.0609   -99.489669    296.75145 
   10020   0.96108201   -9389.7386   -103.09954    301.38469 
   10030   0.96151636   -9390.3792    44.260328    302.62481 
   10040   0.96184738   -9391.6035    102.24139      304.725 
   10050   0.96184298   -9393.0093    127.60946    299.90513 
   10060   0.96144668   -9394.5521     27.10603    298.47506 
   10070    0.9609101   -9395.9344    -43.48829    297.37018 
   10080   0.96048432   -9397.2965    -86.32965    298.60726 
   10090   0.96028528    -9398.444   -3.9190347    293.63857 
   10100   0.96013068   -9399.7666    41.350919    289.52177 
   10110   0.95983144   -9401.0236    53.927155    290.95596 
   10120   0.95934166   -9402.2324   -2.7065821    296.23644 
   10130   0.95878767   -9403.0121   -13.300995    292.85837 
   10140   0.95828592   -9403.7119   -119.65261    292.24804 
   10150    0.9581394   -9403.9293   -123.80045    287.79448 
   10160   0.95845741   -9404.1663   -180.55028    296.64086 
   10170   0.95929129   -9404.3597    98.151962    295.10662 
   10180   0.95994414   -9404.9953    175.29426    291.75447 
   10190   0.96008851   -9405.4019    16.057535    294.31116 
   10200   0.96019705   -9405.3275   -169.65829    300.60735 
   10210   0.96079991   -9405.0246   -48.196658    300.91971 
   10220    0.9616329   -9405.2626    138.86996    293.53099 
   10230   0.96213258   -9405.6488    34.540174    296.78332 
   10240   0.96250655   -9405.5736   -37.574753    299.02729 
   10250   0.96304615    -9405.522   -132.85038    304.99241 
   10260   0.96398422   -9405.6296    39.245767    305.87271 
   10270   0.96485688   -9406.6785    232.17408    306.18348 
   10280   0.96503051    -9408.316    220.93455    307.24491 
   10290   0.96446752   -9410.2623    93.969843    304.19798 
   10300   0.96354663   -9412.0683    -48.36014    301.20132 
   10310   0.96269666   -9413.8339   -58.900224    296.64634 
   10320   0.96207652   -9415.6073   -240.64556    301.44039 
   10330    0.9621856   -9417.4151   -278.36758    309.50118 
   10340   0.96313346   -9420.1062    119.02093    302.26839 
   10350   0.96384473   -9423.7733    274.68334    294.85975 
   10360   0.96375835   -9427.8404    62.775303    299.90064 
   10370    0.9633714   -9431.7524    -16.42764    302.19843 
   10380   0.96300943   -9435.9142   -67.611028    300.38438 
   10390   0.96290538    -9440.061   -222.45611    303.75662 
   10400   0.96350583   -9444.4734   -180.02004    307.19849 
   10410   0.96469804   -9449.8105     125.0604    302.50744 
   10420   0.96562659   -9455.9534    233.23264    301.55592 
   10430   0.96578447   -9462.1843    261.42792    296.43403 
   10440   0.96511019   -9468.2774    96.477866    292.81626 
   10450   0.96403376   -9473.6893   -40.727954    290.31351 
   10460   0.96301933   -9478.4565    -100.5476    290.37022 
   10470   0.96226405   -9482.7893   -79.646151    291.89206 
   10480   0.96170318   -9486.7582     19.96526    288.94714 
   10490   0.96111678    -9490.405   -75.486736     289.9194 
   10500   0.96073802   -9493.3719    -158.0863    291.78809 
   10510   0.96082811   -9495.8632   -74.244074    289.48531 
   10520   0.96122297   -9498.2941   -68.185568    295.05968 
   10530   0.96180479   -9500.6949    100.89848    293.45265 
   10540   0.96215028   -9503.0915     123.5809    290.18671 
   10550   0.96213316   -9505.1931   -11.247667    292.59716 
   10560   0.96210855   -9506.7922   -20.758354    291.39941 
   10570   0.96216135   -9508.1459   -12.714465    287.51689 
   10580   0.96230795   -9509.1147   -114.44191    291.94661 
   10590   0.96277604   -9509.7663    12.103258    290.63855 
   10600   0.96325885   -9510.2749    121.21058    283.34438 
   10610   0.96346555   -9510.6321   -71.184668    288.78735 
   10620   0.96384565    -9510.299    -76.09592    293.39763 
   10630   0.96445522   -9510.2191    115.84023    293.50477 
   10640   0.96471818   -9510.2031    262.99034     287.6317 
   10650   0.96418889   -9510.2655    76.471196    292.04399 
   10660    0.9632977   -9509.4365   -54.020157    293.13509 
   10670   0.96252691   -9508.3678   -116.89189    295.25622 
   10680   0.96205168   -9507.0556   -40.713548    295.13888 
   10690   0.96172327   -9505.8482   -10.690759    293.80598 
   10700   0.96141554   -9504.4826    38.264187     289.3158 
   10710   0.96101587   -9502.9917     -31.3046    291.21284 
   10720   0.96065796   -9501.1778   -52.893106    294.09584 
   10730   0.96043564   -9499.2626   -11.854446    293.47099 
   10740   0.96025808   -9497.1673     5.156955    286.21219 
   10750   0.96013166   -9494.8342   -128.85989    284.65152 
   10760   0.96038906   -9491.8251   -95.642865    287.91695 
   10770   0.96094906   -9488.7586    105.21832    281.93002 
   10780   0.96133034   -9485.6816     -60.3397     289.2293 
   10790   0.96181435   -9481.6724    22.689188    291.03466 
   10800   0.96228087   -9477.8821    85.281285     291.5298 
   10810   0.96250042   -9474.0095    16.767929    300.00839 
   10820   0.96261724   -9469.8989    45.815578    299.43849 
   10830    0.9626224   -9466.1969    21.830337    299.52169 
   10840   0.96249477   -9462.5904    174.02247    288.58358 
   10850   0.96189072   -9459.4386    24.946128    290.93647 
   10860   0.96107819   -9455.7748    -38.02432    296.19327 
   10870   0.96031426   -9451.9369   -21.733975    292.50224 
   10880   0.95966266    -9448.061   -180.72742     294.1096 
   10890   0.95955441   -9443.9879   -190.05659    295.37654 
   10900   0.96006427   -9440.1272   -28.916751    294.02273 
   10910   0.96071961   -9436.8371    127.90019    290.37415 
   10920   0.96105223   -9433.6733    36.261633     295.9646 
   10930   0.96123468     -9430.41   -1.5147878    299.04204 
   10940   0.96142432   -9427.5545     6.716541    300.60324 
   10950   0.96159478   -9424.8915    29.113935     300.5159 
   10960   0.96168282   -9422.5074    40.511824    298.00202 
   10970   0.96165395   -9420.3829   -3.8380779     296.9377 
   10980   0.96163229   -9418.2368   -16.720586     294.5604 
   10990   0.96167438   -9416.3533    10.133027    293.36778 
   11000   0.96171763   -9414.4426   -46.612706    295.80675 
   11010   0.96190388   -9412.5325   -64.282505    298.03339 
   11020   0.96229372   -9410.7751    28.687276    294.11811 
   11030   0.96267956   -9409.1561   -29.766024    296.86008 
   11040   0.96315533   -9407.5398   -18.397284    301.54537 
   11050   0.96369939   -9406.1788    83.099317    302.01707 
   11060   0.96401934   -9405.1924    70.925786     309.2054 
   11070   0.96401358   -9404.4558    259.87891    300.89667 
   11080   0.96323975   -9404.4907    127.28909    299.09592 
   11090   0.96194306   -9404.2018   -55.666986    302.31841 
   11100   0.96073981   -9403.4685   -182.42041    301.52241 
   11110    0.9600832   -9402.7305   -259.52794    306.38534 
   11120   0.96017587   -9402.1694    32.230456    296.58348 
   11130   0.96026921   -9402.2543    122.16802    294.01583 
   11140   0.95999243   -9402.3732    24.533071    295.55957 
   11150   0.95962225   -9401.9546   -79.277474     293.2664 
   11160   0.95951951   -9401.1388   -205.30586    299.69766 
   11170   0.96005504    -9400.413   -147.50574    307.25065 
   11180   0.96108115    -9400.252    120.54021    302.06901 
   11190    0.9618466    -9400.624    205.30666    299.13546 
   11200   0.96197348   -9401.1504    143.03272    301.33938 
   11210     0.961616   -9401.6381    36.390104    298.74677 
   11220   0.96110874   -9401.8529   -75.293005    298.21656 
   11230   0.96079708   -9401.8865   -93.047278    296.41755 
   11240   0.96083646   -9401.7037    -199.5937       299.63 
   11250   0.96150991   -9401.4337   -136.40715    303.30025 
   11260   0.96265778   -9401.7927    111.65554    303.90455 
   11270   0.96353966    -9402.764    226.77001    301.89434 
   11280   0.96376129   -9403.8983    89.679437    302.70667 
   11290   0.96363759   -9405.0013    27.181887    301.97648 
   11300   0.96338255   -9405.9569    48.416146    299.18663 
   11310   0.96298122   -9407.0736   -23.639605    300.09084 
   11320   0.96259172   -9408.0509   -1.3111096    298.83283 
   11330    0.9622032   -9409.1368   -9.5972833    294.96975 
   11340   0.96185557   -9410.0682   -92.651035    294.67726 
   11350   0.96179162   -9410.7299   -88.976601     293.7467 
   11360   0.96205355   -9411.3238   -98.729105    295.10828 
   11370   0.96268019   -9411.9148   -135.05178    301.72105 
   11380   0.96373978   -9412.6375    12.112569    304.36067 
   11390   0.96481454   -9413.7862    210.00982    299.84993 
   11400   0.96528383   -9415.6986    242.07211    300.46396 
   11410    0.9649227   -9417.6094    282.64611    287.65867 
   11420   0.96369405   -9419.4335    -7.369567    285.26604 
   11430   0.96235692   -9420.1331   -205.54596    286.61213 
   11440   0.96165372   -9419.8948   -351.27931    294.26037 
   11450    0.9620079   -9419.6192   -167.90048    300.57535 
   11460   0.96294449   -9419.8878    153.20138    294.97206 
   11470   0.96354692   -9420.7581    103.32531    296.11063 
   11480   0.96379653   -9421.1985    49.366301    296.99104 
   11490   0.96387984   -9421.6365    59.329059    295.62867 
   11500   0.96378722   -9422.0552   -22.116999    300.73631 
   11510   0.96371114   -9422.5375   -9.9145046     303.5502 
   11520   0.96359281   -9423.1687    187.82503    293.45734 
   11530   0.96296837   -9424.1165    -0.304951    293.62159 
   11540   0.96227707    -9424.307   -168.86926    294.62758 
   11550   0.96206493   -9424.0599   -88.185284    288.82374 
   11560   0.96221603   -9423.9234   -125.71255    294.07972 
   11570   0.96275469   -9423.6034   -43.570097    299.19085 
   11580    0.9634542    -9423.535    137.49095    296.47501 
   11590   0.96377074   -9423.8343    169.28163    291.52382 
   11600   0.96360492   -9423.9184   -60.994005     294.0166 
   11610   0.96357368   -9423.2782     -138.239    299.54691 
   11620   0.96394339   -9422.5238    47.830547    299.30634 
   11630   0.96423426   -9422.3808    49.899821    303.79724 
   11640   0.96435374   -9422.0585      5.57749    304.06285 
   11650   0.96444517   -9422.0401    38.232555    305.23954 
   11660   0.96435164   -9422.3208    210.94023    299.82764 
   11670   0.96364149   -9423.0675    44.184337     299.9112 
   11680   0.96272885   -9423.2282   -176.94875    304.25927 
   11690   0.96228812   -9423.1857   -111.76624    299.65655 
   11700   0.96220867   -9423.6089   -2.8827507    298.75565 
   11710   0.96215823   -9424.0078    18.271424    297.77849 
   11720   0.96206732   -9424.6574   -21.104625    297.82747 
   11730   0.96203455   -9425.0977   -1.8197203    299.65332 
   11740    0.9619712   -9425.9977    63.768951    303.46822 
   11750   0.96168651   -9426.8708    74.253081    297.64036 
   11760   0.96120985   -9427.9179   -154.83563    303.18986 
   11770   0.96112737   -9428.5461   -111.34202    302.21671 
   11780   0.96144967   -9429.7066   -14.744798    301.47546 
   11790   0.96182936    -9431.246    111.52156    297.04739 
   11800   0.96194631   -9433.1262   -11.109727    299.93775 
   11810   0.96207994   -9434.6288    -99.66362    302.43227 
   11820   0.96250578   -9436.2357    17.841645    297.24282 
   11830     0.962972   -9438.2539   -5.3521338    299.97686 
   11840   0.96343752   -9440.3295    76.737699    302.57444 
   11850   0.96362615   -9442.9638    270.95117    298.05921 
   11860   0.96298431   -9446.1431    160.10307    296.06015 
   11870   0.96174479   -9448.7345   -38.242937    294.10779 
   11880   0.96054745    -9450.752   -190.47774    294.88147 
   11890   0.95991516   -9452.3721   -221.30456     295.6888 
   11900   0.95994785   -9454.0747   -14.217667    290.50596 
   11910   0.96010953   -9456.1279    2.8195769     293.1105 
   11920   0.96024903   -9457.9654   -8.4448371    295.03424 
   11930   0.96042875   -9459.7868    29.486235     290.8152 
   11940   0.96055345   -9461.5647    18.890138    292.34983 
   11950   0.96058461   -9463.2162    90.456863    290.20266 
   11960   0.96031976   -9464.9578    86.098292    292.63586 
   11970    0.9597026    -9466.462    88.611644    291.00261 
   11980   0.95878628   -9467.5608   -32.244907     286.8694 
   11990   0.95798305   -9468.0001   -263.16741    288.06328 
   12000   0.95798082    -9467.574    -300.3154    293.43283 
   12010   0.95896442   -9467.6527   -90.280859    295.86818 
   12020   0.96031243   -9467.9314    184.43236     289.5697 
   12030   0.96122745   -9468.4185    130.78907    292.65068 
   12040   0.96174005   -9468.4733    14.812157    295.15911 
   12050   0.96222563   -9468.0666    -62.42255    295.56111 
   12060   0.96293093   -9467.7471    -59.45526    304.22131 
   12070     0.963789   -9467.5525    161.37099     303.2556 
   12080   0.96420362   -9468.0355    239.64302    300.36326 
   12090   0.96382607   -9468.6509    208.72872    294.04925 
   12100    0.9627785   -9468.9713   -66.183833    294.84272 
   12110   0.96185164   -9468.4956   -261.22622    299.97962 
   12120   0.96165161   -9467.8093   -68.751768    298.63261 
   12130   0.96168549   -9467.7579     183.7959    290.20113 
   12140   0.96120398   -9468.0019    69.254366    291.02689 
   12150   0.96042155   -9467.6756   -31.455214    291.43366 
   12160   0.95969307    -9466.812     -68.1284    288.90691 
   12170   0.95917443   -9465.5281   -122.89882    288.03251 
   12180   0.95904339   -9463.8018   -133.85602    289.64633 
   12190   0.95931697   -9461.7798  -0.71922874    288.02509 
   12200   0.95966425   -9459.8109   -37.669932     294.9493 
   12210   0.96015534   -9457.3691   -102.56964    300.19832 
   12220   0.96098675   -9454.7639    16.146831    298.43696 
   12230   0.96184997   -9452.5205    128.88646    297.20135 
   12240   0.96233551   -9450.3018    189.07659    295.27365 
   12250   0.96223807   -9448.0094    102.26824    295.15794 
   12260   0.96176739   -9445.2307   -21.932695    297.87029 
   12270   0.96131213   -9441.9248   -80.614881    296.25734 
   12280   0.96113929   -9438.4392   -137.51837    295.38685 
   12290   0.96140573    -9434.822   -59.446021    296.35351 
   12300   0.96190366    -9431.303    33.363371    300.30037 
   12310   0.96228945   -9428.0431    146.12347    298.76214 
   12320   0.96223228   -9424.7467    120.95242    294.25901 
   12330   0.96181902   -9421.2602    -105.7919    300.47404 
   12340   0.96163086   -9417.0983   -50.644366    298.24029 
   12350   0.96164352   -9413.4957  0.022060389    298.34785 
   12360   0.96163343   -9409.8098    64.206871    299.78938 
   12370    0.9614122   -9406.5031    84.026267     296.8141 
   12380   0.96090701   -9403.0868    5.9808289    297.54509 
   12390   0.96036212   -9399.5119     -95.5776    300.78824 
   12400   0.96006972   -9395.6672   -78.078639    302.18286 
   12410   0.96000783   -9392.4268    45.030638    303.01899 
   12420   0.95976419   -9389.6359     233.1815    292.56445 
   12430   0.95883296    -9387.238    55.017828    290.45632 
   12440   0.95765294   -9384.0393   -183.54212    293.49635 
   12450   0.95697779   -9380.1912   -231.11242    297.16589 
   12460   0.95704302   -9376.4396   -173.91958    303.05797 
   12470   0.95768992   -9373.1863   -44.412275    303.30867 
   12480   0.95856341   -9370.2989    12.781663     306.9922 
   12490   0.95941575   -9368.1965    133.47481    308.57097 
   12500   0.95987494   -9366.4736    214.38491    304.79655 
   12510   0.95968362   -9365.2102    112.82536    302.60899 
   12520   0.95907121   -9364.0071    25.134325    299.35238 
   12530   0.95832456    -9362.751   -39.705983    301.68956 
   12540   0.95761551   -9361.4182     11.59273     301.3332 
   12550   0.95686198   -9360.5256   -19.039492    299.70179 
   12560    0.9561552   -9359.5322   -120.82033    298.92418 
   12570   0.95580669   -9358.2592   -152.18794    299.40478 
   12580   0.95593781   -9357.1502   -52.586376    301.45593 
   12590   0.95626057   -9356.3398    75.934611    300.18802 
   12600     0.956397   -9355.9754    23.929611    306.77857 
   12610   0.95635996   -9355.7965    128.47014    303.30858 
   12620   0.95595202   -9355.9833    50.853698    300.36648 
   12630   0.95534314   -9355.8638   -73.854754    303.63843 
   12640   0.95492078   -9355.5631   -88.931649    301.32046 
   12650   0.95478416   -9355.6288   -58.623517    302.97834 
   12660   0.95481345   -9355.9717    76.419182      297.778 
   12670   0.95468293   -9356.4177   -79.681047    303.06619 
   12680    0.9547346   -9356.4709   -85.375783    302.72138 
   12690   0.95508461   -9356.9819   -37.478789    303.47105 
   12700   0.95557193   -9357.6178    38.138287    301.59675 
   12710   0.95602046   -9358.5688    20.080394    299.85016 
   12720   0.95639491   -9359.5697    74.432969    300.12421 
   12730   0.95654421   -9360.7559    132.17598    297.95534 
   12740   0.95625567   -9361.7875    114.04245    293.94181 
   12750   0.95559857   -9362.7726   -46.792429    292.44767 
   12760   0.95507185   -9363.1284   -247.45896    300.66509 
   12770   0.95523834    -9363.265    -71.03689    299.27943 
   12780   0.95573749   -9363.8648  -0.26612147     300.4444 
   12790   0.95630841   -9364.5598   -89.379971    308.72613 
   12800   0.95712639   -9365.5843    68.759103    307.34855 
   12810     0.957773   -9367.0937    207.23106    298.87393 
   12820   0.95784227   -9368.9372    67.189983    300.64015 
   12830    0.9576579   -9370.1981   -70.439819    303.27869 
   12840    0.9576762   -9371.6179   -101.52919    302.24875 
   12850   0.95804486   -9373.1227   -61.243051    303.72346 
   12860   0.95862917   -9374.9767    50.083019    302.02065 
   12870   0.95914323    -9376.995    18.126207    300.61031 
   12880   0.95965141   -9378.9761   -75.343419    301.89659 
   12890   0.96040598   -9380.9436   -18.906249    303.42514 
   12900    0.9612531    -9383.479    119.32926    305.79515 
   12910   0.96170853   -9386.5347    325.23047    298.09183 
   12920   0.96118769   -9389.8991    189.63267    293.64722 
   12930   0.95998494   -9392.9396   -50.970078    294.51529 
   12940   0.95882952   -9395.2298    -136.5634    296.97319 
   12950   0.95802739   -9397.2586   -44.359709    294.09875 
   12960   0.95737979   -9399.2842   -49.421248    290.63512 
   12970   0.95689994   -9400.8764   -185.20416    290.29384 
   12980   0.95701527   -9402.1393    -243.5897    296.26362 
   12990   0.95789833   -9403.5043   -53.219542    300.12479 
   13000   0.95903776   -9405.4488    125.76221    297.67334 
   13010    0.9598957   -9407.5794    46.589848    300.00035 
   13020    0.9606351   -9409.5128   -45.896307    302.09044 
   13030   0.96152973   -9411.3359    34.574413    297.85913 
   13040   0.96238914   -9413.5129    84.786112    295.79041 
   13050   0.96304878   -9415.5503   -14.586238    302.17825 
   13060   0.96372844   -9417.5707    54.441439    301.79551 
   13070   0.96424265   -9420.1154    238.70282    298.67882 
   13080   0.96400327   -9423.1029    248.65181    295.00087 
   13090    0.9629877    -9425.928   -91.717635    298.22872 
   13100   0.96215314    -9427.665   -294.55737    301.45067 
   13110   0.96224986   -9429.3719   -305.11598    303.43318 
   13120   0.96339742   -9431.7311   -170.47959    304.10996 
   13130   0.96516517   -9434.9509    150.09757    301.17865 
   13140    0.9665795   -9438.7583    335.44314    297.48459 
   13150   0.96696464   -9442.8471    314.29752    294.21176 
   13160   0.96633333   -9446.9723    104.36298    296.34406 
   13170   0.96520695   -9450.8417    31.968341    296.13414 
   13180   0.96392471    -9454.728   -97.100963    296.65424 
   13190   0.96287417   -9458.2853   -180.71028    293.72492 
   13200   0.96239425   -9461.7982    -208.0593    293.53051 
   13210   0.96257755   -9465.5323   -113.67042    293.21871 
   13220    0.9632026   -9469.7524   -27.210291    294.64124 
   13230     0.963947   -9474.3864    112.80024    292.71792 
   13240   0.96441674   -9479.6005    88.762724    294.13667 
   13250   0.96457524   -9485.2342    78.655895    295.45257 
   13260   0.96446747   -9490.9753    88.599059    286.20301 
   13270   0.96412375   -9497.0011   -112.31342    291.81548 
   13280   0.96403108   -9502.7322   -41.503045    287.43033 
   13290   0.96413098   -9509.0897   -34.757166    287.78813 
   13300   0.96429539   -9515.5689    78.162397    285.39339 
   13310   0.96427281   -9522.1297    8.8672519    283.31458 
   13320   0.96425588   -9528.1494   -174.58791    286.77321 
   13330   0.96479374   -9533.7394   -184.95428    288.85966 
   13340   0.96597824    -9539.524   -44.140447    289.59308 
   13350   0.96739327   -9545.4077    151.74226    286.09602 
   13360   0.96840614   -9551.1497    215.66901     286.8179 
   13370   0.96873696   -9556.3017    193.85213    283.86939 
   13380   0.96844151   -9560.7898    93.471483    281.66418 
   13390   0.96778944   -9564.3805    18.714655    280.47659 
   13400   0.96703451   -9567.2864   -73.708905    284.30687 
   13410   0.96647752   -9569.2353    -149.5423    291.19792 
   13420   0.96632635   -9570.8811   -14.480152    295.47051 
   13430   0.96618631   -9572.4589    226.40214    286.55509 
   13440   0.96539113    -9574.353    72.180013    287.95707 
   13450   0.96424505   -9575.3514   -65.375424    288.90397 
   13460   0.96326458   -9575.5363   -197.81925    289.95213 
   13470   0.96288052   -9575.0797   -204.37026    288.66808 
   13480   0.96318433   -9574.5677   -98.580715    286.72247 
   13490   0.96384787   -9574.1065    43.395718    286.81887 
   13500   0.96443577   -9573.6421    98.776113    287.83377 
   13510   0.96470457   -9573.1266     107.7255    289.62172 
   13520   0.96465202   -9572.4109    3.6863357    288.87561 
   13530   0.96456545    -9571.163   -68.569497    292.10812 
   13540   0.96464152   -9570.0364    62.859236    290.82531 
   13550   0.96449966   -9569.0851    206.77935    284.69712 
   13560   0.96373748   -9568.3398    56.392463    284.07264 
   13570   0.96271174    -9566.602   -111.36278    285.03069 
   13580   0.96199347   -9564.4875   -164.06526    283.19337 
   13590   0.96180397    -9561.953   -146.86414    281.70155 
   13600   0.96214358   -9559.2513   -165.21803    288.30668 
   13610   0.96300744   -9556.5201    2.3386397    290.75321 
   13620   0.96389586   -9554.2076    258.55375    282.03426 
   13630   0.96406695   -9551.9374    160.33332    282.49778 
   13640   0.96369574   -9549.0707   -22.494881    282.38338 
   13650   0.96336735   -9545.5084   -154.07987    283.42466 
   13660   0.96352094   -9541.5931   -152.63253    289.84007 
   13670   0.96414752   -9537.7179    40.702179    287.34834 
   13680   0.96477857   -9534.1431   0.84314043    290.94011 
   13690   0.96543639   -9530.4817   -26.243441    294.42556 
   13700   0.96618825   -9526.7889    87.666545    291.25052 
   13710   0.96672115   -9523.3971    87.807902    292.26114 
   13720   0.96700195   -9519.7951   -23.314955    294.96726 
   13730    0.9673419   -9516.1122   -60.770744    296.48143 
   13740   0.96790456   -9512.4776    15.318982    291.28173 
   13750   0.96848433     -9509.19    48.555571    293.68209 
   13760   0.96890234   -9506.0615    149.44541    292.83729 
   13770   0.96887452   -9503.0869    114.09211    290.14918 
   13780   0.96850944   -9499.8083   -129.54194    296.94922 
   13790   0.96847616   -9496.0182   -149.47641    302.56136 
   13800   0.96891845   -9492.6017    33.248135    296.71807 
   13810    0.9693679    -9489.608    42.284281    293.59476 
   13820   0.96973205   -9486.7926   -34.190729    297.96568 
   13830   0.97018633   -9483.7996    4.2701379    300.67061 
   13840   0.97062127    -9481.024    128.24775    296.13496 
   13850    0.9706838   -9478.8419    130.97704    296.72978 
   13860   0.97028027    -9476.545    115.59494    296.05848 
   13870   0.96943737   -9474.5264     111.5181    292.30242 
   13880   0.96817631    -9472.285    14.459216    288.68528 
   13890   0.96684674   -9469.3662   -285.05954    295.33136 
   13900   0.96634416   -9465.7229    -365.5761    304.26523 
   13910   0.96697408   -9462.3937   -76.311126    301.24724 
   13920   0.96797025   -9460.2014    155.04716    298.10515 
   13930   0.96851555    -9458.131    307.15038    286.80406 
   13940    0.9681807   -9456.2128    38.422666    294.69006 
   13950   0.96757287   -9453.5068   -1.5830739    295.55729 
   13960   0.96694483   -9450.9382    9.3075853    295.90272 
   13970   0.96621937   -9448.4175    54.444801    292.71133 
   13980   0.96533655   -9445.7524    -93.59014    292.00665 
   13990   0.96469858   -9442.5012   -216.10272    300.81365 
   14000   0.96467173   -9439.2713   -48.077883    298.86067 
   14010   0.96489067   -9436.5376   -27.651036    303.67412 
   14020   0.96516178   -9434.0129    124.87041    299.28572 
   14030    0.9650958   -9431.8181    94.782402    295.29688 
   14040   0.96470152   -9429.5929     8.050909     297.9243 
   14050   0.96424038   -9427.2288   -38.825311    295.54067 
   14060   0.96389766   -9424.7287   -118.96104    303.11342 
   14070   0.96385415   -9422.2392    33.239107    303.57908 
   14080   0.96373594   -9420.3202    73.664987    305.89975 
   14090   0.96332211   -9418.8925    153.12653    300.86358 
   14100    0.9623959     -9417.88     106.6802    296.18895 
   14110   0.96107378   -9416.5358   -45.767501    291.86235 
   14120   0.95985631   -9414.7478   -237.79342    292.99298 
   14130   0.95933647   -9412.0743   -284.73347    298.18315 
   14140   0.95971351   -9409.5625   -130.60483    299.10519 
   14150   0.96059173    -9407.536   -4.4418297    300.89185 
   14160    0.9615262   -9405.8968    144.60486     300.6125 
   14170   0.96204168   -9404.7926    235.76951    297.80304 
   14180   0.96181749   -9403.7582    164.56422    294.62112 
   14190   0.96104696   -9402.0951   -16.823414    289.03782 
   14200   0.96033294   -9399.9271   -252.15504    293.89647 
   14210   0.96033165   -9397.1938   -156.33353    295.96779 
   14220    0.9608752   -9394.7365   -0.8473662    298.54938 
   14230   0.96145603   -9392.5202     114.3836    295.92306 
   14240   0.96173168    -9390.508    38.294442    298.13251 
   14250    0.9618729   -9388.1461   -3.3143973    298.30991 
   14260   0.96204452   -9385.8561   -42.928709    302.87222 
   14270   0.96234789   -9383.5563   -33.800004    305.96608 
   14280   0.96280012   -9381.6475   -9.6551647    305.45668 
   14290   0.96329174   -9380.1322    112.28652     301.8993 
   14300   0.96345466   -9378.9284    166.29619    297.08465 
   14310   0.96308799   -9377.7946    91.807588    297.51301 
   14320    0.9623375     -9376.72    76.764138    298.15554 
   14330   0.96129864   -9375.5502   -24.355571     298.8997 
   14340   0.96026603    -9373.838   -125.23231    298.00515 
   14350   0.95959096   -9371.9993   -166.12126    297.91465 
   14360   0.95942795   -9370.0418   -90.484966    292.45171 
   14370   0.95962339   -9368.1319   -139.86844    299.91115 
   14380    0.9602427   -9366.0071   -74.562029    305.22094 
   14390   0.96115336   -9364.4613    57.738046    304.53737 
   14400   0.96192348   -9363.2205    241.26381    296.92698 
   14410   0.96201055   -9362.3385    109.94824    298.72763 
   14420   0.96170679   -9360.9644   -104.20099    305.08664 
   14430   0.96168175   -9359.1832    -117.2639    304.14125 
   14440   0.96203932   -9357.7778    5.3971401    303.56085 
   14450   0.96242125   -9356.8589    112.69315      299.253 
   14460     0.962504   -9356.1544    33.891589    302.25742 
   14470   0.96240686   -9355.2731    79.520415    301.14827 
   14480   0.96206752   -9354.8769    14.869437    307.89792 
   14490   0.96157861   -9354.2829    104.15822    302.46093 
   14500   0.96077107   -9354.2633    72.013234    301.27677 
   14510   0.95962942   -9354.2858     110.6589    296.69131 
   14520   0.95810689   -9354.5571   -32.208427    294.91736 
   14530   0.95659223   -9353.8476    -195.0895    298.21816 
   14540   0.95561348   -9352.6867   -180.82869    294.44428 
   14550   0.95526243   -9351.5593   -272.33287     300.0377 
   14560   0.95577511   -9350.1462   -195.28638    306.47871 
   14570   0.95692985   -9349.5128    99.056666    305.60863 
   14580   0.95786261   -9349.6019    260.85479    306.81229 
   14590   0.95795092   -9350.1095    323.38213    299.66826 
   14600   0.95704763   -9350.7151     11.96566    300.82625 
   14610   0.95597742    -9350.607   -173.88936    299.60417 
   14620   0.95539556   -9350.0815   -124.47744    296.39594 
   14630   0.95521854   -9349.9825   -51.282795    298.55058 
   14640    0.9552111   -9349.8031   -1.1399208    299.26948 
   14650   0.95524046   -9349.9261   -28.809504    297.25882 
   14660   0.95538897   -9349.8312   -87.685295    296.53698 
   14670   0.95584517   -9349.4767   -126.13167    300.80383 
   14680   0.95674279   -9349.3302   -84.556201    306.97845 
   14690   0.95795278   -9349.5252    96.917052    303.45541 
   14700   0.95896323   -9350.2883    155.19973    301.35364 
   14710   0.95951929   -9351.3095    119.84334    302.30738 
   14720   0.95967992   -9352.5826    115.61173    299.09304 
   14730   0.95947045   -9353.7404    75.469474    297.24629 
   14740   0.95899334   -9354.9467   -19.917178    300.45926 
   14750   0.95851599   -9356.1576   -71.593541    306.78386 
   14760   0.95817889   -9357.6135    47.573086    302.21532 
   14770    0.9577662   -9359.3414    -65.85486    298.78189 
   14780   0.95756151   -9360.9406   -183.70495    305.48679 
   14790   0.95787362   -9362.7759    1.7852902     302.1956 
   14800   0.95824766   -9365.3935    69.073606    303.30556 
   14810   0.95839119   -9368.1628    129.40548    296.82631 
   14820   0.95820411   -9371.1879   -77.813427    297.91532 
   14830   0.95816966   -9373.7642   -19.338356    295.43304 
   14840   0.95824239   -9376.6638   -17.347632    298.16633 
   14850   0.95836146    -9379.464   -34.286874     303.0395 
   14860   0.95856168   -9382.5696    95.243422    297.74486 
   14870   0.95851842   -9386.0453    62.247177     301.2767 
   14880   0.95822689   -9389.5288    46.209062    299.16084 
   14890   0.95779202   -9392.7707   -62.075493    295.94247 
   14900    0.9575402   -9395.8626   -146.48384    298.66287 
   14910   0.95773546   -9398.8991   -108.04966    300.93184 
   14920   0.95831231   -9402.1729    -21.23202     297.1149 
   14930   0.95903541   -9405.6125    22.219054    294.45717 
   14940   0.95972139   -9408.9035    67.084825    293.15104 
   14950   0.96024794   -9411.9658    21.026725    290.70875 
   14960   0.96075755   -9414.7108   -96.949427    290.23486 
   14970   0.96163057   -9417.1062   -140.37869     295.9062 
   14980   0.96295386   -9419.7861    70.774956    301.88973 
   14990   0.96409052   -9422.8355    329.61913    290.54712 
   15000   0.96432141   -9425.7694    106.42775    291.82644 
   15010   0.96414764   -9428.0627   -53.220879    295.73916 
   15020   0.96408137   -9429.9702   -46.152305    295.67182 
   15030   0.96419754   -9431.6394   -46.136887    292.20914 
   15040   0.96453286     -9433.31   -126.68253    296.84742 
   15050   0.96525042   -9435.0313    -5.047097    302.00591 
   15060   0.96597651   -9437.1405     235.6194     295.6425 
   15070   0.96608061   -9439.5097    47.055085    301.44794 
   15080   0.96593648   -9441.2898    15.239532    300.75463 
   15090   0.96571809   -9443.2461     93.62029    294.23368 
   15100   0.96521869    -9445.339    9.3235861    295.28843 
   15110   0.96462789   -9447.0792    6.4317984    291.37081 
   15120   0.96398996   -9448.6855   -2.4235214    292.24585 
   15130    0.9632986   -9450.2922   -5.4790744    294.93784 
   15140   0.96259542   -9451.6892   -56.062606    297.81051 
   15150   0.96201608   -9452.9251   -43.594256    297.70634 
   15160   0.96155275   -9454.1799   -25.332379    296.45962 
   15170   0.96116796   -9455.3415   -70.886868    296.08974 
   15180   0.96100029   -9456.4209   -89.489694    296.81411 
   15190   0.96110549   -9457.7649  -0.37642915    295.62702 
   15200    0.9612462   -9459.0702    44.230664    293.67662 
   15210   0.96127413   -9460.2093    -2.475666    293.15773 
   15220   0.96127493   -9461.0544    40.195453     289.4745 
   15230    0.9611742   -9461.9171   -18.647285    288.40564 
   15240   0.96114025   -9462.1482   -141.75007    293.61498 
   15250   0.96153755   -9462.1048   -105.36898      296.457 
   15260    0.9623065   -9462.1925     47.43059    295.84602 
   15270   0.96297735   -9462.6187    182.72962    289.90944 
   15280   0.96315638   -9462.9368    70.922002     288.4884 
   15290   0.96312101   -9462.5924   -145.45019    291.99472 
   15300    0.9635489   -9461.7208   -260.40365    302.33462 
   15310   0.96477865   -9460.9935    41.287377    300.13007 
   15320   0.96601434    -9460.996       287.02    293.62056 
   15330   0.96642445   -9461.1718    219.19562    292.29197 
   15340   0.96613419   -9460.8355     -17.5541    297.05965 
   15350   0.96581601   -9459.9477   -92.092819    298.11168 
   15360   0.96579199   -9459.0222   -122.65445    301.67785 
   15370   0.96614438   -9458.0595    -37.96303    302.73789 
   15380   0.96664899   -9457.4461    102.70414    297.94963 
   15390   0.96688728   -9457.0071    99.482578    293.59189 
   15400    0.9668597   -9456.4075   -81.253017    298.86928 
   15410   0.96702205   -9455.3636   -28.015776    297.38925 
   15420   0.96727276   -9454.4169    115.24476    294.53839 
   15430   0.96719883   -9453.7182    111.97303    294.24747 
   15440    0.9667572   -9452.5234   -4.7470127    296.21674 
   15450   0.96628851   -9450.8285   -93.245523    295.87647 
   15460   0.96611846    -9448.793    -163.7528    298.62807 
   15470   0.96643354   -9446.6288   -31.449396    298.14633 
   15480   0.96685735   -9444.7826    185.87221    298.01434 
   15490   0.96668348   -9443.1467    313.33661    289.38322 
   15500   0.96556934   -9441.5464   -16.959545    294.64143 
   15510   0.96434987   -9438.6165   -174.53766    297.25335 
   15520   0.96363006    -9435.075   -166.18425     295.8631 
   15530   0.96345135   -9431.3839   -137.79207    294.35314 
   15540   0.96376442   -9427.5427    -130.9405    299.73317 
   15550   0.96448138   -9423.6561    78.243568     302.1097 
   15560   0.96495926   -9420.0877    315.37082     293.2194 
   15570   0.96455645   -9416.7067    34.409884    301.33414 
   15580   0.96390766   -9412.2474   -96.388999    305.87114 
   15590   0.96351119   -9407.8867    -48.38735     301.7037 
   15600   0.96325964   -9403.6463    16.867035    300.27391 
   15610   0.96291324   -9399.6662    146.58514    293.65436 
   15620   0.96212771   -9395.9611    23.146132    292.58773 
   15630   0.96122246   -9391.5114    -191.7302    300.70723 
   15640    0.9608374   -9386.7785   -150.88554    302.42497 
   15650   0.96096434   -9382.2135   -83.839259     305.6132 
   15660   0.96136844   -9378.1316    22.092915    308.27059 
   15670   0.96173352   -9374.6831    115.38242    309.33252 
   15680   0.96171944   -9371.7686    190.89766    300.44333 
   15690    0.9611803   -9369.1119   -81.568287    304.06953 
   15700   0.96076139   -9366.0495   -72.121183    306.54895 
   15710   0.96053068   -9363.6118    116.91078    301.14447 
   15720   0.95994488   -9361.7646    78.525837    299.10779 
   15730   0.95908691   -9359.6884   -105.58488    300.57146 
   15740    0.9584801   -9357.3374   -137.01734    299.07751 
   15750   0.95831727   -9355.2365   -74.045206    296.01167 
   15760   0.95840953   -9353.2075    7.1959995    294.30543 
   15770   0.95853726   -9351.1121   -26.961474    291.45003 
   15780   0.95880809   -9348.9003    -202.7738    301.90387 
   15790   0.95966259   -9346.6764    -53.42674    306.44785 
   15800   0.96077162   -9345.1799    156.63326    304.88234 
   15810   0.96145065   -9344.2068     227.5039    304.72946 
   15820   0.96143851   -9343.5148    106.24576    305.77832 
   15830    0.9610304   -9342.6462    1.8156729    303.39006 
   15840   0.96060103   -9341.7141   -93.293402    304.79509 
   15850   0.96040904   -9341.0606   -37.389257    308.32832 
   15860   0.96029374   -9340.8873     143.4842    305.13544 
   15870   0.95973152    -9341.477    134.74698    305.54748 
   15880   0.95868267   -9342.0115   -1.8547754    302.46044 
   15890   0.95758065   -9342.4247   -131.64146    299.57413 
   15900   0.95681297   -9342.5632   -83.662731    297.88378 
   15910   0.95631545   -9342.8104   -68.391214    298.67278 
   15920   0.95602078   -9343.0881   -60.630918    302.16023 
   15930   0.95588442   -9343.3519    34.796939    298.24457 
   15940   0.95567845   -9343.8386   -34.869529    298.69119 
   15950   0.95558012   -9344.1439   -129.34994     301.4916 
   15960   0.95586671   -9344.6337   -37.468765    303.19264 
   15970   0.95628069   -9345.3676    163.39397    295.31211 
   15980    0.9562419   -9346.4789    127.69776    292.06074 
   15990   0.95576042   -9347.3803   -7.1292272    295.33359 
   16000    0.9552505   -9347.7984   -99.266625    298.32206 
   16010   0.95503228   -9347.9726   -103.28311    298.02011 
   16020   0.95518743   -9348.3319   -135.78989    302.17288 
   16030   0.95575379   -9348.8199    29.828255    299.87529 
   16040   0.95630832   -9349.8389    135.92959    297.42662 
   16050   0.95644426    -9351.084    126.07001    299.94565 
   16060   0.95614476   -9352.2101    96.486173    297.34401 
   16070   0.95552536   -9353.2774   -68.018454    298.66202 
   16080   0.95506238   -9353.9767   -126.99317    298.45865 
   16090   0.95500316   -9354.9362   -78.848822    299.77637 
   16100     0.955181   -9356.0069    54.699885     298.3198 
   16110    0.9552478   -9357.2341    28.513333    290.08805 
   16120   0.95532369   -9358.2054   -285.07612    296.26611 
   16130   0.95624771   -9358.7621   -208.28758    300.01559 
   16140   0.95796588   -9360.2175   -51.855581    303.20368 
   16150   0.95995778   -9362.3664    124.74753    306.83331 
   16160   0.96164679   -9365.2011    255.93989    306.69818 
   16170   0.96255343   -9368.6937    289.98735    307.21238 
   16180    0.9625133   -9372.7947    264.51864    300.62172 
   16190   0.96165034   -9377.1582   -10.605437    296.56538 
   16200   0.96073469   -9381.1196   -175.25024    297.49021 
   16210   0.96027783   -9385.2603    -26.42314    292.26281 
   16220   0.95995007   -9389.9132   -8.7006947    289.44124 
   16230   0.95969443   -9394.5887   -187.27017    291.01635 
   16240   0.96002147   -9399.0093   -200.78685    291.56986 
   16250    0.9610488   -9403.8676   -67.957906    293.95679 
   16260   0.96235835   -9409.2544    85.643468    299.63929 
   16270    0.9634598   -9414.9623     186.9543    295.78779 
   16280   0.96406013   -9420.6841    84.770059    288.97012 
   16290   0.96444567   -9426.0358   -123.38271    295.18537 
   16300   0.96516237   -9431.1045   -45.234558    300.93699 
   16310   0.96602857   -9436.4244     184.5091    299.06251 
   16320   0.96638305   -9442.0373    214.38081    294.82006 
   16330   0.96607369   -9447.1874    50.108436    291.56712 
   16340   0.96558839   -9451.8696   -213.91192    301.27079 
   16350   0.96563693   -9455.7959   -7.6508367    295.82245 
   16360   0.96580394    -9460.188    103.00876     293.1145 
   16370   0.96569117   -9464.0522   -30.962331    297.38713 
   16380    0.9656252   -9467.5645   -26.068218    300.78211 
   16390   0.96555497   -9470.9946    180.57619    296.82288 
   16400   0.96494362    -9474.561    124.52949    289.55933 
   16410   0.96392535   -9477.3319   -133.64604    287.19734 
   16420   0.96326187    -9479.054   -246.88105    290.70432 
   16430   0.96335106   -9480.3645   -140.21856    291.93739 
   16440   0.96392438    -9481.689    21.899707    290.25526 
   16450   0.96451413   -9483.1206     43.65037    290.55195 
   16460   0.96500445   -9484.0987   -9.5137854     292.6651 
   16470   0.96552242   -9484.8527    2.9413097    294.39516 
   16480   0.96605094   -9485.5548      71.4887     293.8835 
   16490   0.96637972   -9486.2596    108.98903    292.57905 
   16500   0.96640658   -9486.8962   -11.856744    298.91485 
   16510   0.96638647   -9487.0649    82.629583    294.48757 
   16520   0.96617046   -9487.5337   -13.551229    298.17281 
   16530   0.96590802   -9487.7521    3.3137045    299.70184 
   16540    0.9656157   -9487.9968    55.131093    294.91578 
   16550   0.96518165   -9488.2069   -73.093528    297.34495 
   16560   0.96493411   -9488.2199   -77.644968    297.63283 
   16570   0.96490766   -9488.1912    19.029503    296.55891 
   16580    0.9648622   -9488.3733    13.445969    294.48626 
   16590   0.96477678   -9488.4195   -24.500205    297.79315 
   16600   0.96474744   -9488.3861    11.616204    296.15938 
   16610   0.96468946   -9488.2581    23.518851    296.03106 
   16620   0.96452451   -9488.2807    83.841228    292.77075 
   16630   0.96407356   -9488.3663    85.939401    291.84508 
   16640   0.96328273   -9488.2785     105.5006    286.31163 
   16650   0.96215145    -9487.723   -57.171926    284.55899 
   16660   0.96118075   -9486.3118   -315.23579    295.81064 
   16670   0.96109096   -9484.1124   -166.94124    294.32101 
   16680   0.96162244   -9482.4303   -15.918282    294.86995 
   16690   0.96220979    -9481.047    178.34518    295.91188 
   16700   0.96225832    -9480.096    179.50319    297.09349 
   16710   0.96170819   -9478.7834     24.05623    295.37691 
   16720   0.96107845   -9477.0442   -217.85334    300.23163 
   16730   0.96109234   -9474.6228   -215.81457    302.11844 
   16740   0.96183037   -9472.6508   -12.024501    297.85958 
   16750   0.96269466   -9471.1799     136.7608    297.44692 
   16760   0.96315897   -9469.9292    188.13759    297.13948 
   16770   0.96299865   -9468.5213    179.04235     296.0943 
   16780   0.96222348   -9467.1839    79.055361    291.74091 
   16790   0.96115566   -9465.2376   -137.55455    290.79234 
   16800    0.9604627    -9462.434   -239.09462    294.97496 
   16810   0.96050579   -9459.4055   -145.15884    294.51018 
   16820   0.96107077   -9456.5807      8.11906    292.65835 
   16830   0.96170312    -9453.756    61.645605    291.75533 
   16840    0.9621825    -9450.808   -13.517811    300.57275 
   16850   0.96265978   -9447.6339    84.519464     297.9919 
   16860   0.96293731   -9444.5728    65.159857    297.84887 
   16870   0.96295883   -9441.4211    148.12699    294.75848 
   16880   0.96250806   -9438.3188     137.8668    289.41732 
   16890     0.961616   -9434.7985   -98.331449    292.14336 
   16900   0.96094799   -9430.4079   -176.36218    293.31671 
   16910   0.96081247   -9425.8662   -91.556226      298.201 
   16920   0.96092881   -9421.5767    110.46715     297.6343 
   16930   0.96074217    -9417.626    113.33861    292.64369 
   16940   0.96020607   -9413.4802   -88.755831    297.44726 
   16950   0.95986984   -9408.8456   -117.46502    298.20193 
   16960   0.95992963   -9404.2818   -149.66825    306.91948 
   16970   0.96040055    -9400.238    94.601008    310.19149 
   16980   0.96060418   -9397.1434    288.56625    302.04686 
   16990   0.95994744   -9394.8823    108.04422    301.70201 
   17000    0.9588288   -9392.2184    12.347026     293.4884 
   17010   0.95766252   -9389.4839   -205.34939    296.62199 
   17020    0.9570323   -9386.3413   -171.49176    298.49431 
   17030   0.95696343   -9383.6344   -68.142714     300.4089 
   17040   0.95710634   -9381.4332    110.62463    297.66513 
   17050   0.95691612   -9379.6883    198.57683    291.57965 
   17060    0.9560893   -9378.0995    39.996327    292.74949 
   17070   0.95508862   -9376.0888   -184.03913    293.84687 
   17080   0.95464268   -9373.4111   -302.89714    300.53389 
   17090   0.95512809   -9371.1996   -127.89584    308.32347 
   17100   0.95603036   -9369.8137    194.39165    304.12945 
   17110    0.9564388   -9369.3446    182.28569    301.65418 
   17120   0.95625249   -9368.8548    82.316802    300.81215 
   17130    0.9557547   -9368.3597    26.206106    297.36351 
   17140   0.95518174   -9367.6145    -126.4673    298.78607 
   17150    0.9549682   -9366.7786   -178.20108    304.30014 
   17160   0.95532172   -9365.8798   -85.471039    302.39105 
   17170   0.95602119   -9365.7081   -17.409045    305.72177 
   17180   0.95677334   -9365.9194    153.17467    298.76368 
   17190   0.95714909   -9366.4781    48.921633    301.63101 
   17200   0.95727669   -9366.7969    148.55188    297.31664 
   17210   0.95699448   -9367.2329    53.637515    295.85078 
   17220   0.95651333   -9367.5142   -106.68194    302.36178 
   17230     0.956263   -9367.4051    25.809834    295.69161 
   17240   0.95596973   -9367.8531    54.578299    292.86206 
   17250   0.95548468   -9367.9441   -6.1638703    293.85891 
   17260   0.95500788   -9367.8476   -163.38045    302.11171 
   17270   0.95496839   -9367.2328   -77.810851    298.07051 
   17280   0.95525416   -9367.1177   -26.497949    298.90267 
   17290   0.95561401   -9367.0694    91.226948    296.51938 
   17300    0.9557304   -9367.3494    85.666132    295.83448 
   17310   0.95558759   -9367.4757    -9.719011    300.16658 
   17320   0.95542298   -9367.3835     8.312915    298.39847 
   17330   0.95524032   -9367.3749   -18.726787    297.22937 
   17340   0.95510043   -9367.2622   -52.587867    298.88717 
   17350   0.95511123   -9367.2491   -5.2937594    299.18231 
   17360    0.9551143   -9367.3415     82.63139    296.11444 
   17370   0.95489188   -9367.5947    8.3612279    299.96288 
   17380   0.95456999   -9367.6194    56.041802    294.06084 
   17390   0.95411069   -9367.7242    -36.92128    293.14107 
   17400   0.95373501   -9367.3996    -123.2896    296.59438 
   17410   0.95372316   -9366.9155    -87.46709    298.01366 
   17420   0.95398404   -9366.4432    57.585776    291.96202 
   17430   0.95412838   -9366.0898    50.323625    291.99126 
   17440    0.9541005   -9365.5162    3.5017434    294.89868 
   17450   0.95402559   -9364.8776    24.738301    293.32668 
   17460   0.95389993   -9363.9952   -24.811218    289.78129 
   17470   0.95393413   -9362.6511   -250.26908    295.99878 
   17480   0.95472914   -9361.0522   -167.06068     303.8414 
   17490   0.95606889   -9360.0513    250.86151    299.11398 
   17500   0.95672965   -9359.8526    368.69006    294.78656 
   17510   0.95627529   -9359.4536    25.879085    301.19434 
   17520   0.95560519   -9358.0163   -119.78556    300.88592 
   17530   0.95525295   -9356.7564    -27.35017     302.2782 
   17540    0.9549439   -9355.8618    115.76849     302.0071 
   17550   0.95429169   -9355.4252    19.861816    303.41223 
   17560   0.95349871   -9354.6991   -61.995991    302.06282 
   17570   0.95286951   -9354.0191   -112.56438    300.80356 
   17580   0.95259204   -9353.1772   -183.03609     305.4603 
   17590   0.95291642   -9352.4982   -184.21959    308.94848 
   17600   0.95384575   -9352.2688    48.587496    305.70774 
   17610   0.95467624   -9352.7753    303.11679    296.34929 
   17620   0.95464557   -9353.7247    187.48952    295.45945 
   17630    0.9539463   -9354.1824    31.120855    295.74233 
   17640   0.95308138   -9354.3763   -78.447322    297.41725 
   17650   0.95238955   -9354.2748   -81.202539    298.61068 
   17660   0.95192787   -9354.1853   -52.173191    294.56267 
   17670   0.95168612   -9353.8986   -186.78483    299.27528 
   17680   0.95200216   -9353.6002   -127.11386    304.82383 
   17690    0.9527562   -9353.6156    49.539652    301.42794 
   17700   0.95342994   -9354.1992    141.25943    296.71454 
   17710   0.95367793   -9354.8592    176.51443    286.48304 
   17720   0.95347667   -9354.9944   -185.26505    293.36089 
   17730   0.95379246   -9354.2086   -333.49428     305.7865 
   17740   0.95516347   -9353.9053   -67.382365     312.4022 
   17750   0.95680742    -9354.758     355.2118    306.28573 
   17760    0.9574723   -9356.5128    363.26943    299.03529 
   17770   0.95700298   -9358.2159    27.790291    301.98535 
   17780    0.9563311   -9359.2032   -122.06021    300.39846 
   17790   0.95604168   -9360.2236   -193.55289    303.49897 
   17800   0.95632903   -9361.5715   -18.257482    302.29068 
   17810    0.9567328   -9363.5053    127.18228    299.44185 
   17820   0.95677053   -9365.9162    75.499074    304.23102 
   17830   0.95651073   -9368.6703    62.064084    303.27498 
   17840   0.95604141   -9371.6034    19.793763     299.2718 
   17850   0.95545173   -9374.7794    40.163611    296.98523 
   17860   0.95468208   -9378.3266     47.91776    296.08035 
   17870   0.95372542   -9381.8479   -49.922763    294.35591 
   17880   0.95288985   -9385.0081   -179.99152    296.85204 
   17890   0.95256326   -9387.9278   -148.52382    299.37315 
   17900   0.95271413   -9391.2963   -20.501601     298.3398 
   17910   0.95294919   -9394.9669    121.61241    291.83266 
   17920   0.95287146   -9398.8024    22.437004     291.4449 
   17930   0.95270089   -9402.3654   -99.009319    296.76991 
   17940   0.95278925   -9405.6005    3.2072451    295.66457 
   17950   0.95290268    -9409.186    58.012829    291.92133 
   17960   0.95287034   -9412.6199   -33.090491      292.326 
   17970   0.95293534   -9415.5194   -98.218248    292.13296 
   17980   0.95337288   -9418.2355   -218.80535    302.17344 
   17990   0.95443307   -9421.0216    80.540918    297.64209 
   18000   0.95537884   -9424.4652    208.56442     291.3295 
   18010   0.95573115   -9427.7928    60.169273     295.9104 
   18020   0.95584866   -9430.7469    10.841951    295.79373 
   18030   0.95594179   -9433.3755   -9.8534783    292.75226 
   18040   0.95609174   -9435.9184    -59.22342    294.57658 
   18050   0.95641742   -9438.1273   -20.282622    295.55262 
   18060   0.95681657   -9440.5916    68.932612    296.94898 
   18070   0.95698966   -9443.1263    193.03097    289.50733 
   18080   0.95662224   -9445.5765    17.804784    287.51321 
   18090   0.95617107   -9447.0873   -219.67293    292.75108 
   18100    0.9563784   -9448.0203   -222.40551    295.76546 
   18110   0.95732629   -9449.3189   -32.785698     296.7895 
   18120   0.95843895   -9450.8804    150.47542    299.45835 
   18130    0.9591161   -9452.6182    233.08478    297.91273 
   18140   0.95908397   -9454.3824    160.26001    291.54399 
   18150   0.95855291    -9455.747   -99.694641    295.77687 
   18160   0.95823331   -9456.6151   -111.92131    297.07937 
   18170   0.95824509   -9457.7616    72.671906    297.20416 
   18180   0.95799973   -9459.3899    279.83793    286.71847 
   18190   0.95693013    -9461.036    68.043592    282.22639 
   18200    0.9555377     -9461.43   -199.59316    284.32039 
   18210   0.95472117   -9460.7749   -357.96979    289.82369 
   18220   0.95505056   -9459.7188   -326.88071    295.59215 
   18230   0.95646881   -9459.2288   -25.635219     293.5663 
   18240   0.95811597   -9459.2355    187.65552    290.45086 
   18250   0.95926365   -9459.1537    232.48413     289.0692 
   18260   0.95968666   -9458.6944    203.80718     287.2485 
   18270   0.95945512   -9457.7852    61.516507     288.1149 
   18280   0.95899947   -9456.1788   -124.09625    289.89712 
   18290   0.95892366   -9453.7806   -205.38792    297.27125 
   18300    0.9594387   -9451.4211    40.129886    293.58568 
   18310   0.95996398   -9449.3099    15.327324    297.26783 
   18320   0.96041998   -9446.8694    30.761446    296.16065 
   18330   0.96083536   -9444.3148   -9.3494284    299.30499 
   18340   0.96124791   -9441.6622    100.80561    296.71393 
   18350   0.96139839   -9439.1644    126.81606    291.36464 
   18360   0.96115765   -9436.3976    15.120155    294.89821 
   18370   0.96080996   -9433.1709   -22.615592    292.69969 
   18380   0.96053836   -9429.6007   -101.56849    296.78437 
   18390   0.96051935   -9425.5918   -2.2996026    298.53476 
   18400   0.96052737   -9421.8085    53.900313    296.48571 
   18410    0.9603917   -9417.9902   -22.915093    298.14705 
   18420   0.96029876   -9413.8301   -8.1380956      296.377 
   18430   0.96027406   -9409.5337   -74.534166    296.52657 
   18440   0.96047866   -9405.0786   -45.781093    298.00526 
   18450    0.9608387   -9400.7956    88.388835    295.98222 
   18460   0.96094948   -9396.7754    99.380098    300.12595 
   18470   0.96069849   -9392.6494    108.40141    298.50313 
   18480   0.96010731   -9388.5912   -50.048412    300.95401 
   18490   0.95964092   -9384.1934   -198.26245    304.71935 
   18500    0.9597533    -9379.879   -75.674937    303.73402 
   18510   0.96014662   -9376.4393    86.985464    308.03869 
   18520   0.96024515   -9373.6854    242.80287    303.83113 
   18530   0.95959862   -9371.5823    172.32273    297.53693 
   18540   0.95831851   -9369.4935    24.481024    299.14302 
   18550    0.9568563    -9367.223   -109.50028    298.46594 
   18560   0.95566748   -9364.5562   -176.37657    295.95932 
   18570   0.95502363   -9361.9471    -207.2884    299.69247 
   18580   0.95502599   -9359.3681   -132.01001    304.89558 
   18590   0.95546575   -9357.3175    13.169479    305.77484 
   18600   0.95594062   -9355.9481    51.512742     306.3127 
   18610   0.95626323   -9355.0508    93.396722    303.21855 
   18620   0.95629246   -9354.3482    103.64132    299.36605 
   18630   0.95599567   -9353.7914   -1.9381349    305.78475 
   18640   0.95557961   -9353.3273    120.81207    296.82978 
   18650   0.95486442   -9353.2305   -54.424747     294.1172 
   18660   0.95426301   -9352.3421   -161.21523    295.67837 
   18670   0.95414662   -9351.4227   -104.74251    297.05162 
   18680   0.95438364   -9350.7962   -56.886263    305.76305 
   18690   0.95474193   -9350.4108    175.38871    300.86395 
   18700   0.95461155   -9350.5927    173.63605    293.48557 
   18710   0.95396616   -9350.5421   -133.63559    298.12713 
   18720   0.95363882   -9349.7556   -181.76865    303.48689 
   18730   0.95384974   -9349.3937    30.824804     300.0434 
   18740   0.95402818   -9349.6048    95.143115    300.81682 
   18750   0.95391472   -9349.8827    42.278043     295.5596 
   18760   0.95371595     -9349.81   -177.09841    299.94265 
   18770   0.95402364   -9349.2969   -116.09586    298.68758 
   18780   0.95477701   -9349.2484   -3.3460109    296.62776 
   18790   0.95561157   -9349.4191    66.667854     298.0276 
   18800   0.95628884   -9349.7038    81.925501    301.46408 
   18810    0.9567108   -9349.8532    106.35883    299.16112 
   18820   0.95683145   -9350.2792    7.1871498    299.88533 
   18830   0.95688459   -9350.4812   -22.530257    304.40096 
   18840   0.95698934   -9350.6327    29.853171    301.53326 
   18850   0.95703739    -9351.322   -12.028556    305.19988 
   18860   0.95708086   -9351.8654    63.124823    303.45747 
   18870   0.95694838   -9352.8945    37.867884    304.87928 
   18880   0.95666018   -9353.8887    20.965446    302.10633 
   18890   0.95631806    -9355.009   -85.309766     305.1205 
   18900   0.95616892   -9355.8456   -20.781742    302.65042 
   18910   0.95613613   -9357.1627   -57.784625    306.91215 
   18920   0.95623511   -9358.5479    58.616539    302.07999 
   18930   0.95621077   -9360.2655    47.965844    299.69384 
   18940   0.95600584   -9362.0531    37.258059    303.12183 
   18950   0.95562068   -9363.8025     96.37126    297.66083 
   18960   0.95496451   -9365.7077   -92.431901    302.90226 
   18970    0.9544626   -9367.2313     -8.27562    301.12218 
   18980   0.95396859   -9369.2549    107.75387    296.48912 
   18990   0.95315267   -9371.2096   -35.538967    294.94864 
   19000   0.95246666   -9372.4278   -338.61122    301.93809 
   19010   0.95274882   -9373.3632   -175.13816    301.23262 
   19020   0.95367026    -9374.905    86.664359    293.26925 
   19030   0.95446598   -9376.5605    45.845694     296.1792 
   19040   0.95510985   -9378.0096    68.907076    297.01255 
   19050   0.95557092   -9379.6614    65.051314    299.03506 
   19060   0.95579793   -9381.1785    104.30371    298.43945 
   19070   0.95572603   -9382.6451     20.63907    297.50443 
   19080   0.95558897   -9383.8343   -118.76469    301.61204 
   19090   0.95579565   -9384.7099    -70.52875    298.63669 
   19100   0.95627345   -9386.0778     6.115486    299.00314 
   19110   0.95676753   -9387.3499     60.88364    297.91995 
   19120   0.95709883   -9388.9355    23.678967    304.88404 
   19130   0.95725967   -9390.4862    222.38914    296.52927 
   19140   0.95682158   -9392.5006    39.032139    295.52513 
   19150    0.9561907   -9393.7408   -152.47104    298.19881 
   19160   0.95602972   -9394.4896   -228.40917    300.32664 
   19170   0.95657429   -9395.6164   -68.914957    302.47013 
   19180   0.95740463    -9397.185    121.10821     296.5934 
   19190   0.95797858   -9398.9746   -2.3326547    301.58507 
   19200   0.95851143   -9400.3619    33.757638    301.53506 
   19210   0.95895837   -9402.1821    119.73539    299.75892 
   19220   0.95905276   -9404.3868    117.10352    302.36803 
   19230   0.95874049   -9406.4673    81.482408    301.57153 
   19240   0.95814103   -9408.7093    -20.12339    301.72575 
   19250   0.95753702   -9410.5777   -44.120985    297.51824 
   19260    0.9570776   -9412.3935   -124.14154    296.82735 
   19270   0.95698931    -9413.916   -127.70913    295.37051 
   19280   0.95735527   -9415.4194   -113.96304    295.06353 
   19290   0.95814721   -9417.0128   -70.262735    297.71343 
   19300   0.95921243   -9418.8162    58.126174    296.80445 
   19310   0.96015533   -9420.7901    171.64025    297.15275 
   19320   0.96057705   -9422.9451    210.33124    297.09186 
   19330   0.96031878   -9424.7589    108.12725    292.81065 
   19340   0.95972972   -9426.4535    -151.4755    297.79587 
   19350   0.95950861   -9427.4681   -105.55364    296.67036 
   19360   0.95967972   -9428.6815   -52.086996    296.29403 
   19370   0.96001196   -9429.8901    87.810373    292.96583 
   19380   0.96013642   -9431.2409    57.878015    289.72151 
   19390   0.96013948   -9432.3647   -236.54266    300.06128 
   19400   0.96082597   -9432.8723   -161.74036    298.20225 
   19410   0.96212346   -9433.9475    42.216123    295.84458 
   19420   0.96340793   -9435.3367    114.89664    301.41922 
   19430   0.96435234   -9436.7912    180.17204    301.89554 
   19440   0.96477471   -9438.4647    141.89584    300.04372 
   19450   0.96473744    -9440.113     53.17666    298.17913 
   19460   0.96451054   -9441.7566   -31.234635    300.59763 
   19470   0.96430944   -9443.4615    53.029377    299.25935 
   19480   0.96394546   -9445.3054    53.419258    298.36636 
   19490   0.96339806    -9447.284   -44.896808    298.45122 
   19500   0.96296223   -9449.0274    -92.99122    295.91853 
   19510   0.96283631    -9450.882   -127.11315    301.34623 
   19520   0.96306148   -9453.0723    47.827268     301.3064 
   19530   0.96317347   -9456.2866    126.97803    297.68376 
   19540   0.96288766   -9459.5976    47.289155    291.22691 
   19550   0.96248015     -9462.89   -196.76348    296.35734 
   19560   0.96258536   -9466.2369   -81.552924    298.07302 
   19570   0.96297355    -9470.405    144.59148    295.22581 
   19580   0.96295785   -9475.5922    163.71979    292.74886 
   19590   0.96241982   -9480.9508    4.0325211    291.97666 
   19600   0.96182189   -9486.4204   -154.53619    295.47416 
   19610   0.96165881   -9492.0461   -85.520922    288.14319 
   19620   0.96185006   -9498.1752   -106.86753    285.52216 
   19630   0.96239441   -9504.4669   -80.201856    292.34338 
   19640   0.96315903   -9511.0847    149.81333    287.96875 
   19650   0.96357211   -9517.8916    55.179012    290.67865 
   19660   0.96376426   -9524.5715   -16.390977    295.96141 
   19670   0.96399666   -9530.9858    19.429306    291.87361 
   19680   0.96420307   -9537.0457    22.410031    287.86101 
   19690   0.96438377   -9542.6328   -60.199746    290.63423 
   19700   0.96472256   -9547.7971   -24.115609     295.5263 
   19710   0.96512665   -9552.7033    157.76069    289.99378 
   19720   0.96509899    -9557.155    139.51842    282.90051 
   19730   0.96463857   -9560.9364   -61.481506    287.27494 
   19740    0.9642856   -9563.5982   -115.57023    291.04444 
   19750   0.96429026   -9565.9367   -96.023043    295.65762 
   19760   0.96457795   -9567.9941     52.52506    293.71861 
   19770   0.96479306   -9570.0676   -20.427786    295.04663 
   19780   0.96506138   -9571.7615  -0.27981871    292.13763 
   19790   0.96537995   -9573.2526    29.429248      294.411 
   19800   0.96554939   -9574.7286    160.03567    292.45097 
   19810   0.96523916    -9576.208    95.910934    289.89432 
   19820   0.96458976   -9577.2099   -76.875208    292.68948 
   19830   0.96411342   -9577.4675     -121.217    291.89284 
   19840    0.9640176   -9577.5416    -78.60803    291.38575 
   19850   0.96416851   -9577.6228    64.720488    290.32487 
   19860   0.96415045   -9577.8066    97.555674    287.57669 
   19870   0.96384658   -9577.6337   -56.638852    289.14132 
   19880   0.96369657   -9576.5212   -149.83577    288.41939 
   19890   0.96407295   -9575.1636   -210.57276    290.37189 
   19900   0.96517051   -9573.8287   -100.71782    295.72567 
   19910   0.96662879   -9572.7972    205.78085    292.85175 
   19920   0.96757165   -9572.1465    229.45904    290.79088 
   19930   0.96782714     -9571.12    42.998865    291.55284 
   19940   0.96791232   -9569.4222   -43.023042    292.28612 
   19950   0.96809598   -9567.7773    64.737493    292.52219 
   19960   0.96804497   -9566.2138    216.05839    286.06927 
   19970   0.96733949   -9564.7968     95.39864    283.31001 
   19980   0.96622164    -9562.562     1.275921    280.67453 
   19990   0.96506538   -9559.7931   -196.74582    284.24234 
   20000   0.96447978   -9555.6549    -326.3204    288.78275 
   20010   0.96498465     -9551.46   -342.14716    299.55484 
   20020   0.96657934   -9547.8802    32.683982    304.62226 
   20030   0.96817035   -9545.2662    462.23163    295.77703 
   20040    0.9684089   -9543.3125    396.44864    291.73153 
   20050   0.96732778   -9541.2415    57.660262    293.73229 
   20060   0.96592281   -9538.1866   -130.87534    288.98315 
   20070    0.9649009   -9534.5292   -268.50546    291.62264 
   20080    0.9647059    -9530.531   -239.34606    297.34653 
   20090   0.96529244   -9526.7694   -37.276073    294.19493 
   20100   0.96609377   -9523.5101    92.108563    292.39854 
   20110   0.96661945   -9520.7054    215.18661    291.14942 
   20120   0.96644569   -9518.2218     230.7206    286.97131 
   20130   0.96555241   -9515.2945   -46.427352    286.14006 
   20140   0.96476062   -9511.4846   -346.46235    297.87183 
   20150   0.96496897   -9507.3462   -190.13511      301.671 
   20160   0.96582784   -9504.2121    140.51907    296.78977 
   20170   0.96632467   -9501.8664    294.81228    289.38008 
   20180   0.96592132   -9499.7561    135.13373    287.90517 
   20190    0.9650599   -9496.9367   -194.66112    294.75684 
   20200   0.96471396   -9493.4544   -223.18805    298.53227 
   20210   0.96504633   -9490.4481     30.52093     295.9503 
   20220    0.9653386   -9488.2818    192.90082    293.96123 
   20230    0.9650363   -9486.3484    150.24826    291.09031 
   20240   0.96426007   -9484.1868   -103.96233    295.84115 
   20250   0.96369721   -9481.3966   -135.15139    297.65845 
   20260   0.96353643   -9478.7578   -41.764622    295.13213 
   20270   0.96356148   -9476.4488    -62.77057    293.89749 
   20280   0.96381923   -9474.2471   -102.93737    300.71435 
   20290   0.96437075   -9472.1278    79.830298    297.64238 
   20300   0.96477689    -9470.561    60.714062    296.27486 
   20310   0.96500716   -9468.8924   -21.395919    301.49229 
   20320   0.96526538   -9467.3185    49.967404    306.87941 
   20330   0.96530803   -9466.4006    258.86549    301.63336 
   20340   0.96451109   -9466.2095    288.27772    292.33418 
   20350   0.96278148   -9465.9883   -48.387715    292.70982 
   20360   0.96106138   -9464.4067   -284.79039    296.00183 
   20370   0.96016347   -9462.3025   -259.23484    296.53001 
   20380    0.9600986     -9460.52   -130.99222    302.58547 
   20390   0.96041884   -9459.2427    169.02939    294.03308 
   20400   0.96034667   -9458.5257    11.751679    298.40075 
   20410   0.96015123   -9457.3421    -68.93824    304.80317 
   20420   0.96012986   -9456.4082    38.410642    306.56849 
   20430   0.95993441   -9455.9558    264.64042    295.71131 
   20440    0.9589531   -9456.0221    139.07647    288.24361 
   20450   0.95748056   -9455.3657   -183.45261    293.84984 
   20460   0.95644466   -9453.6739   -177.70636    292.56963 
   20470   0.95600402   -9452.0187   -174.19888    290.30768 
   20480   0.95617141   -9450.2516   -204.11396    296.07956 
   20490   0.95696764   -9448.5449    40.712687    293.60473 
   20500   0.95775316   -9447.2595     87.67548    297.02461 
   20510   0.95825807   -9445.7754    104.53164     295.1508 
   20520   0.95846264   -9444.2546    50.529886    291.03855 
   20530   0.95849516   -9442.4265  -0.26907218    291.61915 
   20540    0.9585501   -9440.3747   -75.452606    295.60098 
   20550   0.95882317   -9437.9586   -24.930165    296.33695 
   20560   0.95919128   -9435.7117    91.112364    290.33613 
   20570   0.95935839   -9433.5057   -42.104938    298.92082 
   20580   0.95957065   -9430.9626    39.522582    298.34125 
   20590    0.9596997   -9428.6777    63.671129    294.07044 
   20600   0.95965808    -9426.423   -56.888498    302.08402 
   20610   0.95971024   -9424.0431    74.597928    298.93484 
   20620   0.95956556   -9422.0199    98.668022    297.70802 
   20630   0.95909253   -9419.8385     40.84906    296.54942 
   20640   0.95844891   -9417.6307   -7.6968373    294.87245 
   20650   0.95776898   -9415.3567   -24.222634    297.48316 
   20660   0.95710646   -9412.8855    23.636555    296.39748 
   20670   0.95632626   -9410.7059    48.457595    293.30877 
   20680   0.95537615   -9408.3426   -88.988879    293.35766 
   20690   0.95466769   -9405.3424   -245.97646    298.37905 
   20700   0.95470124   -9402.0992   -188.25573    299.39171 
   20710   0.95539554   -9399.2283   -43.641184    300.89871 
   20720   0.95626431   -9396.9904    171.14592    305.34405 
   20730   0.95658969   -9395.3192    351.50362    295.53561 
   20740   0.95586984   -9393.9871    49.717542    298.75344 
   20750   0.95484257   -9391.8648   -127.97991    299.77385 
   20760    0.9541838   -9389.2918    -189.7933    294.82313 
   20770   0.95417723   -9386.6492   -261.95903    299.13308 
   20780   0.95501674   -9384.2007   -81.564713    303.34606 
   20790   0.95614325   -9382.3731    288.48544    291.91135 
   20800   0.95651868   -9381.0909    183.20321    290.82797 
   20810   0.95627295   -9379.1643   -43.754438    296.13138 
   20820   0.95611419   -9376.5742   -138.88813    297.33601 
   20830   0.95638775   -9373.9793   -80.150292    297.35755 
   20840   0.95694824   -9371.7487    80.321705    296.71337 
   20850   0.95728099   -9369.8976     183.6453    296.50621 
   20860   0.95705965   -9368.0465    87.207076    297.74916 
   20870   0.95650633   -9366.0897   -8.7598042    295.42285 
   20880   0.95597086   -9363.8814   -128.93886      297.448 
   20890   0.95579716   -9361.4336   -116.89346    301.10333 
   20900   0.95597959   -9359.3908    12.477173    304.41164 
   20910   0.95611761   -9357.9031    157.90342    301.99803 
   20920   0.95579286   -9356.8622     93.86868    296.21116 
   20930   0.95515681   -9355.5197   -84.001893    295.41388 
   20940   0.95472708   -9353.7037   -117.88749    293.49927 
   20950   0.95472516   -9351.7853   -201.45493    301.66112 
   20960   0.95532392   -9350.0736   -1.1811589    299.65533 
   20970   0.95601819   -9348.8914    135.30856    296.69268 
   20980   0.95631769   -9347.9894    129.70305    299.86542 
   20990   0.95615823   -9347.2195    133.05393    298.52471 
   21000   0.95555377   -9346.4783    6.5622781    300.51855 
   21010   0.95487511   -9345.5471   -128.95104    304.42489 
   21020   0.95452169    -9344.479   -30.956459    301.35618 
   21030   0.95427317    -9344.176    90.461547    297.55645 
   21040   0.95371353   -9343.9511    123.14342    292.94061 
   21050    0.9527653   -9343.6157   -57.547987    291.65721 
   21060    0.9519495   -9342.5744   -206.09793    290.35503 
   21070   0.95179816   -9341.1583   -299.81966    296.92362 
   21080   0.95259695   -9339.7026   -184.35489    301.76933 
   21090   0.95408472   -9339.0924   -52.678617     306.5344 
   21100   0.95585386   -9339.0214    42.496469    307.32431 
   21110   0.95764534   -9339.2963     47.83215    308.33469 
   21120   0.95933324   -9339.9059    201.87296    303.60973 
   21130   0.96043074   -9340.8742    323.78348    297.97526 
   21140   0.96053574   -9341.9153    136.65835     300.7868 
   21150   0.96016517    -9342.465   -130.93763    308.85095 
   21160   0.96012945   -9342.6837   -90.826668    307.36594 
   21170   0.96041111   -9343.5388    54.906367    302.25179 
   21180   0.96056976   -9344.6585    81.636638      302.149 
   21190   0.96046292   -9345.8115    19.486693     304.5689 
   21200   0.96027266    -9346.851   -37.825766    304.74662 
   21210   0.96018897   -9347.8137    -15.13945     301.5228 
   21220   0.96014733   -9348.9568    66.208311     298.1568 
   21230   0.95992767   -9350.2364    -19.34363    302.37526 
   21240   0.95967086   -9351.3018     60.26365     299.4395 
   21250   0.95924041   -9352.6242    42.953863    297.26887 
   21260      0.95865   -9353.6636   -69.611288    298.07059 
   21270   0.95826075   -9354.4606   -160.25976    302.79324 
   21280    0.9583386   -9355.1937   -103.83597    305.65992 
   21290   0.95877465    -9356.323    1.2005602      307.087 
   21300   0.95925408   -9357.7252    68.395357    304.32553 
   21310   0.95958566   -9359.2998   -6.5645862    303.21208 
   21320   0.95994124   -9360.8569   -47.274523    307.58341 
   21330   0.96044318   -9362.5291    15.699357    307.49985 
   21340   0.96092012   -9364.8087    116.21913    302.41835 
   21350   0.96108021   -9367.2683    86.429754    301.35402 
   21360   0.96096372   -9369.6505   -2.2590466    302.05298 
   21370   0.96079646   -9371.9604    31.039114    300.22827 
   21380   0.96052555   -9374.4006     32.39528    300.90134 
   21390   0.96012469   -9376.7256   -2.0732817    300.55495 
   21400   0.95973448   -9378.8174   -102.46669    304.52126 
   21410   0.95961196   -9380.9054   -26.713903    301.69311 
   21420   0.95964677   -9383.2627   -84.330647    304.83571 
   21430   0.95992451   -9385.6667   -47.224817    305.65018 
   21440   0.96038349   -9388.3895    18.783431    308.34502 
   21450   0.96075064    -9391.674    182.29094    305.52841 
   21460   0.96060351   -9395.1848    103.99422    301.76014 
   21470   0.96011531   -9398.4106   -105.95318    305.51194 
   21480    0.9598646   -9401.4714   -57.267938    307.59879 
   21490   0.95977112   -9405.2064    104.89398    304.87999 
   21500   0.95933953   -9408.8915    166.16533    292.64288 
   21510   0.95846944    -9412.452   -165.73646    295.57697 
   21520   0.95798096    -9414.729   -153.69421    292.02536 
   21530   0.95804507    -9417.064    -130.9543    293.86866 
   21540   0.95853619   -9419.3659   -11.158258    294.60224 
   21550   0.95908372   -9421.5999     151.3313    287.35198 
   21560    0.9592525   -9423.8217   -34.375353    295.67509 
   21570   0.95944512   -9425.2762   -50.540415    295.11559 
   21580   0.95988431   -9426.6798   -150.96718    300.87204 
   21590   0.96077643   -9428.2841    11.987387    305.81826 
   21600   0.96163731    -9430.178    353.73135    293.37261 
   21610    0.9614929   -9432.6962    228.87821    293.66486 
   21620   0.96052727   -9434.6441    11.646329    294.37785 
   21630    0.9594578   -9435.8523   -192.11913    296.31005 
   21640   0.95894256   -9436.5283   -247.33172    301.42334 
   21650   0.95915694   -9437.4324   -15.184611    299.25585 
   21660   0.95949101   -9438.6731    144.54169    292.07879 
   21670   0.95944917   -9440.0297    5.7473464    295.68262 
   21680    0.9593204   -9440.8447    5.9419693    292.49258 
   21690   0.95916958   -9441.7642    2.1459828    298.03244 
   21700     0.958922    -9442.576    157.22339    291.86066 
   21710   0.95822499   -9443.5593    4.3176228    290.94717 
   21720   0.95745592   -9443.7764   -175.82209    295.17017 
   21730   0.95718526   -9443.4938   -129.27189    292.51616 
   21740   0.95738263    -9443.319    -126.3025    298.91227 
   21750   0.95793823   -9443.1874    117.80595    293.00618 
   21760   0.95824149   -9443.5498    100.89635    294.35047 
   21770   0.95818594   -9443.6363    33.698697     298.8455 
   21780   0.95798003   -9443.6132    51.235827     295.3381 
   21790   0.95762365   -9443.5731   -70.565759    300.79882 
   21800   0.95744274   -9443.1084    -109.3931    300.98924 
   21810   0.95764329    -9442.758   -100.89447    298.10931 
   21820   0.95823522   -9442.5845   -84.094346    299.66424 
   21830   0.95911904   -9442.6848    69.082868    300.35222 
   21840   0.95982723   -9443.0417    206.94538    295.80454 
   21850   0.95997405    -9443.543    28.313115    296.23189 
   21860   0.95997011   -9443.3305   -10.779442    292.43114 
   21870   0.96003859   -9443.2665   -79.467642    297.48268 
   21880   0.96030579   -9442.9292   -1.9831777    299.72777 
   21890   0.96061217   -9442.7795    65.413005    297.32026 
   21900   0.96074145   -9442.8168    42.235237    299.44178 
   21910   0.96071026   -9442.6804     73.94242    294.36258 
   21920   0.96048786   -9442.6679   -61.038268    296.94929 
   21930   0.96040267   -9442.1371   -47.537403    294.63647 
   21940   0.96050822   -9441.6377   -60.341408    300.30271 
   21950   0.96073667   -9441.1002      115.987    298.88971 
   21960   0.96066725   -9441.0612    123.64154    291.79215 
   21970    0.9602008   -9440.7415  -0.61102553    289.89843 
   21980   0.95969287   -9439.6446   -87.770777    289.91495 
   21990   0.95944214   -9438.0865   -137.08964    293.09297 
   22000   0.95963233   -9436.2136   -128.40802    298.98937 
   22010   0.96024055   -9434.3668   -1.5607916    301.97886 
   22020   0.96089374   -9432.5267    177.65154    293.94759 
   22030   0.96106502   -9430.8579    123.45678     292.7819 
   22040   0.96081529   -9428.6117    11.807962    292.34981 
   22050   0.96052593   -9425.6469   -145.69569    296.84451 
   22060   0.96067447   -9421.7928   -160.96274    301.54735 
   22070   0.96134613   -9417.9925   -19.189231    308.24333 
   22080   0.96204498   -9414.4939    336.09313    300.62083 
   22090   0.96177398   -9411.5291    317.75556    291.62866 
   22100   0.96048518   -9408.0158   -50.742952    294.79741 
   22110    0.9592088   -9403.0062   -228.28607    296.65546 
   22120   0.95861272   -9397.1626   -263.43192    297.35083 
   22130   0.95888482   -9391.3063   -223.15863    302.42733 
   22140   0.95990552   -9385.6267   -6.7588942     299.4223 
   22150   0.96107727   -9380.3594     93.49921    301.18655 
   22160   0.96201753   -9375.1613    78.800874    307.24211 
   22170   0.96269089   -9370.1186    136.64832    305.48771 
   22180   0.96294203   -9365.5314    185.52604    302.99091 
   22190   0.96260308   -9361.2297    131.10879    301.79162 
   22200   0.96179942   -9357.1402   0.99909022    299.40931 
   22210   0.96095983   -9352.8197   -148.21109    300.63681 
   22220   0.96048785   -9348.4815   -16.464115    297.91712 
   22230   0.96008477   -9344.8694    60.460027    296.70898 
   22240   0.95945093   -9341.5615    59.904331    294.42256 
   22250   0.95861587   -9338.2148    -76.63798    296.18243 
   22260   0.95794126   -9334.6126   -127.02635    299.14965 
   22270   0.95766244   -9330.9891   -130.37231    301.40689 
   22280   0.95779955    -9327.592   -48.316782    302.66407 
   22290   0.95812837   -9324.7838    43.986677    300.66249 
   22300   0.95836831   -9322.4313   -9.9234258    307.53584 
   22310   0.95858848   -9320.2167    70.695195    301.75596 
   22320   0.95871085   -9318.4526   -122.69709     303.3182 
   22330   0.95921283   -9316.4565   -194.86944    308.00908 
   22340   0.96035688   -9315.0023    28.522581    305.19957 
   22350   0.96149991    -9314.387    217.71623    306.26758 
   22360   0.96198226   -9314.1135    292.15445    300.42147 
   22370   0.96159049   -9314.1923    78.359118    303.15112 
   22380   0.96079719   -9313.8803    68.397083    297.94629 
   22390   0.95979262    -9313.729   -108.92003    301.34248 
   22400   0.95900239   -9313.1396   -110.33333    299.60071 
   22410    0.9585938   -9312.5943   -175.10996    301.13493 
   22420    0.9587227   -9311.9953   -152.76024    307.97618 
   22430   0.95936216   -9311.8852   -2.3000228    308.47982 
   22440    0.9600482   -9312.6473     159.3323    303.84647 
   22450   0.96030088   -9313.5894    87.785825    301.33686 
   22460   0.96030893   -9314.3295   -142.91053    304.94736 
   22470   0.96075931    -9314.894   -216.56415    311.04883 
   22480   0.96190922   -9315.9819   -1.4177638    310.28811 
   22490   0.96315046   -9317.9881    240.17935    307.44861 
   22500   0.96368496   -9320.7336    266.86608    309.65127 
   22510   0.96334918   -9323.7141    125.65284     309.2912 
   22520   0.96257621    -9326.599   -81.856076    308.95158 
   22530    0.9619708    -9329.283   -29.432485    300.98607 
   22540   0.96147019   -9332.3687    4.2879517     302.9398 
   22550   0.96091413   -9335.6755  -0.70964062    307.78465 
   22560   0.96029239   -9339.0463    40.728266    302.16577 
   22570   0.95952303   -9342.8564   -17.996114     299.6821 
   22580   0.95877463   -9346.2824   -124.94382    301.22826 
   22590   0.95840012   -9349.4857   -164.91161    299.77657 
   22600   0.95861275   -9352.5627   -207.18219    303.10027 
   22610   0.95950228   -9355.7785   -77.258358      305.819 
   22620   0.96071326   -9359.5854    99.136396     302.9177 
   22630   0.96169316   -9363.4879    174.93595    296.18282 
   22640   0.96219719   -9367.3324    13.952443    302.75101 
   22650   0.96260385   -9370.9294   -18.471545    308.72108 
   22660   0.96307129   -9374.5467    81.582135    302.61937 
   22670   0.96334482    -9378.264    42.094416    301.87523 
   22680   0.96349479   -9381.7211   -51.383528     304.8224 
   22690   0.96377304   -9385.0492    5.6771475    300.42926 
   22700   0.96408655    -9388.408    44.933007    296.91462 
   22710   0.96428705    -9391.529    29.838857    298.25473 
   22720   0.96438096   -9394.3056    42.836448    297.72645 
   22730   0.96433747   -9396.7606    42.949538    293.63835 
   22740   0.96417589   -9399.1761   -52.436387    299.90296 
   22750    0.9640826   -9401.3119    85.552684    296.06106 
   22760   0.96378921   -9403.4601     19.55126    295.59707 
   22770   0.96339379   -9404.9068   -71.212398    299.09093 
   22780   0.96317621   -9406.4224   -61.156458    302.55665 
   22790   0.96310927   -9407.8653    11.688334    303.21951 
   22800   0.96303934   -9409.5648    12.138113    301.12239 
   22810   0.96290475    -9411.134    62.008932    298.62943 
   22820   0.96259311   -9412.8175   -11.715352    298.42827 
   22830   0.96232842   -9414.1999   -165.78701    298.12086 
   22840   0.96257748   -9414.9363   -139.99137    292.04876 
   22850   0.96336424   -9415.8178    -112.8825    296.10997 
   22860    0.9645491   -9416.7988    30.917868    300.51731 
   22870   0.96570563   -9418.0818    155.66948    301.37204 
   22880   0.96643444   -9419.4955     127.4569    301.47692 
   22890   0.96677191   -9420.7075     53.00028    300.40489 
   22900   0.96693985   -9421.8881   -5.2034439    301.49853 
   22910   0.96711798   -9423.0475  -0.43506471     304.0436 
   22920   0.96727653   -9424.4053    87.859977    302.53683 
   22930   0.96718888   -9426.0913    57.280357    302.05488 
   22940   0.96690845   -9427.5847     -37.6489    301.52389 
   22950   0.96671533   -9429.1248   -54.451289    302.46054 
   22960   0.96667261   -9430.6097    7.2451231     301.4299 
   22970   0.96663398   -9432.3132   -18.622703    305.50574 
   22980    0.9666295   -9434.1643    26.980677    302.60125 
   22990   0.96657692    -9436.079    7.8515356    299.80335 
   23000   0.96648709   -9437.8975  -0.91914449    301.02331 
   23010   0.96637366   -9439.8955    46.805208    299.27984 
   23020   0.96608922   -9442.0513    92.529828    298.25655 
   23030   0.96545488   -9444.3762    163.04618    291.70562 
   23040   0.96428811   -9446.6734    -4.372169     290.6134 
   23050   0.96303593   -9448.0224   -167.55234    293.56737 
   23060   0.96225877   -9448.7725   -202.31999     291.0856 
   23070    0.9621513   -9449.4166    -205.4052    294.45453 
   23080   0.96268891   -9450.0721   -37.679133    297.19361 
   23090   0.96341111   -9451.0479    99.614843    296.65465 
   23100   0.96386582   -9452.0339    124.83928    294.29891 
   23110   0.96394573    -9453.058    66.769364    296.60643 
   23120   0.96373835   -9453.8436     128.0239    289.10506 
   23130   0.96317608   -9454.4582   -49.680112    292.80469 
   23140   0.96268061   -9454.5345   -82.740136     295.1939 
   23150   0.96245356   -9454.5624   -110.34923    300.28179 
   23160   0.96253827   -9454.5372   -29.969956    297.98088 
   23170   0.96283182   -9454.7601   -144.33562    300.82386 
   23180   0.96358242    -9454.723    -100.5736      303.207 
   23190   0.96472646   -9455.4948    34.284922    305.89619 
   23200   0.96578173   -9456.7009    251.75837    305.87229 
   23210   0.96604082   -9458.4106    418.58756    296.96557 
   23220   0.96498334   -9460.5541    177.28723    294.25186 
   23230   0.96320118   -9462.0644   -69.696779     294.5946 
   23240   0.96153709   -9462.8162   -249.62914    298.86092 
   23250   0.96058083    -9463.125    -270.2849    301.98846 
   23260   0.96048831   -9463.5208   -157.80358    300.05414 
   23270   0.96092036   -9464.4817    39.490536    297.70525 
   23280   0.96128455   -9466.0364    123.83533    298.77004 
   23290   0.96125196   -9467.5541    116.92537    295.35777 
   23300   0.96083656   -9469.0347    61.376515    291.74947 
   23310   0.96019582   -9470.1979   -34.169771    291.87437 
   23320   0.95963218   -9471.0113   -100.47915    293.06732 
   23330   0.95934454    -9471.623   -55.045794    290.75082 
   23340   0.95928044   -9472.1999   -175.77322    299.55201 
   23350   0.95972486   -9472.6815   -117.49952    304.66628 
   23360   0.96058806   -9473.6586     88.42711     295.8487 
   23370   0.96133235   -9474.9529      24.8537    295.38123 
   23380    0.9620065   -9476.1671    26.629833    295.92517 
   23390    0.9626218   -9477.4275    115.08875    292.92057 
   23400   0.96291295   -9478.8227    126.09603    290.20076 
   23410    0.9628212   -9479.9585     27.45727    289.96808 
   23420   0.96263576   -9480.7726   -116.26071    297.03054 
   23430   0.96274572   -9481.5809   -14.268106    298.71253 
   23440   0.96290402   -9482.6822    154.41159    291.58679 
   23450   0.96259277   -9484.0928    147.40119    289.51068 
   23460    0.9617835   -9485.0369   -15.141141    290.26375 
   23470   0.96095385   -9485.5957   -153.24065    293.33067 
   23480   0.96053304   -9485.7817   -67.563326    288.89053 
   23490   0.96042753   -9485.8747   -196.60385     296.8573 
   23500   0.96089046   -9485.7203   -60.055732     297.0855 
   23510   0.96157574   -9486.1352    190.72023    290.94997 
   23520   0.96171226    -9486.936    211.13683    290.68079 
   23530    0.9611523   -9487.3689    62.905657    290.66904 
   23540   0.96032921   -9487.2097   -67.500146    289.19504 
   23550   0.95969413   -9486.4839   -177.51307    294.03377 
   23560    0.9595579      -9485.1   -75.063176    289.94987 
   23570   0.95975008   -9483.8411   -91.398535    293.03294 
   23580   0.96019571   -9482.4839    48.663587    293.59641 
   23590   0.96053867   -9481.0626     94.50936    292.40669 
   23600   0.96065586   -9479.4188   -107.20113    298.32128 
   23610   0.96106346   -9477.2285   -78.811849    297.92263 
   23620   0.96178175   -9475.1423    12.998895    296.64656 
   23630   0.96253147   -9473.0427     21.65673    294.88635 
   23640   0.96328118    -9470.872   -49.351055    298.07779 
   23650   0.96419192   -9468.4449    7.6883995    302.25367 
   23660   0.96507313   -9466.3924     189.6941    302.74741 
   23670    0.9653971   -9464.6778    233.20368    297.83828 
   23680   0.96498794   -9462.7919     101.3838    294.56975 
   23690   0.96419698    -9460.426   -45.555629    295.68977 
   23700   0.96351082   -9457.6007   -166.41501    297.78542 
   23710   0.96328701   -9454.4684   -52.044546     299.2454 
   23720   0.96323904   -9451.8364     106.1379    297.29612 
   23730   0.96287983   -9449.4285    74.734831     297.2123 
   23740   0.96226293   -9446.7732   -94.300683    299.34343 
   23750   0.96189849   -9443.5013   -187.66301    303.43993 
   23760   0.96209672   -9440.4466    -19.28922    299.57402 
   23770   0.96240116   -9437.8722    135.57918    297.46209 
   23780   0.96226331   -9435.7425    229.02342    293.93802 
   23790   0.96140588   -9433.5639    6.2291634    297.05963 
   23800   0.96044777   -9430.6031   -208.80887     300.8819 
   23810   0.96010782   -9427.1876   -206.51923    299.56681 
   23820   0.96045012   -9423.9917   -87.600896    305.48203 
   23830   0.96104391   -9421.4312    237.85805    301.25391 
   23840   0.96099781   -9419.8131    154.51534    304.82512 
   23850   0.96038063   -9417.6369    43.088276    296.41796 
   23860   0.95969597   -9415.2885   -312.13963    303.67645 
   23870   0.95985439   -9412.3598   -200.07692    308.17915 
   23880   0.96068642   -9410.4722    99.097032    306.13198 
   23890   0.96130215   -9409.1672    178.45156    302.31338 
   23900   0.96141054   -9407.9565    84.333088    295.07876 
   23910   0.96125302   -9406.6318   -70.755631    300.23259 
   23920   0.96124968   -9404.9845   -14.986981    298.52363 
   23930   0.96133114   -9403.5414   -8.6211463    302.66951 
   23940   0.96139172   -9402.3821    118.57506     300.5573 
   23950   0.96108596   -9401.4691    167.66192    291.81488 
   23960   0.96030522   -9400.5701   -118.66597    295.27624 
   23970   0.95981163   -9398.5797   -273.54846    305.05253 
   23980   0.96008715   -9396.6161    18.775042    297.55279 
   23990   0.96045235   -9395.3396    34.474727    297.66955 
   24000   0.96070837   -9394.0675    2.3755594    302.69528 
   24010   0.96091594   -9392.9071    137.80771     297.0506 
   24020   0.96075166    -9391.909    49.446542    295.76648 
   24030   0.96042308    -9390.422   -104.75452    298.24379 
   24040   0.96038177   -9388.6002   -68.111288     297.1857 
   24050   0.96056344   -9386.9581    9.0879001    298.07725 
   24060   0.96075137   -9385.4987   -12.752314    301.95848 
   24070   0.96094831   -9383.9662    50.346101    302.11689 
   24080   0.96100721   -9382.7116    86.972466    300.48136 
   24090   0.96078114   -9381.6317    43.447871    298.64005 
   24100    0.9604119   -9380.2941    -72.26465    298.41249 
   24110   0.96023781   -9378.4605   -115.42521     298.1894 
   24120   0.96046996   -9376.7537   -130.26473    301.74493 
   24130   0.96111169   -9375.1683    34.784261    301.57876 
   24140   0.96173632   -9374.0246     70.29282     303.1565 
   24150   0.96214816   -9373.0076    60.470663    306.84688 
   24160   0.96235064   -9371.8531    104.59955    302.53476 
   24170   0.96225617   -9371.2657    21.349792    304.92851 
   24180    0.9620461   -9370.5724     11.04045    304.35174 
   24190   0.96178981   -9370.0393    7.6986056    303.50628 
   24200   0.96147107   -9369.5208    40.570837    303.69564 
   24210   0.96102661   -9369.2968   -38.052819    307.37131 
   24220    0.9606671   -9369.1158   -125.77855     314.1781 
   24230   0.96062237   -9369.4149    83.585833    310.68964 
   24240   0.96030028   -9370.7387    330.15068    299.02029 
   24250   0.95895386   -9372.8363    157.42706    298.39001 
   24260   0.95700639   -9374.3359   -221.59275    302.67175 
   24270   0.95561081   -9374.9231   -364.72984    309.51429 
   24280   0.95527585   -9375.9076     -53.1791    299.02482 
   24290   0.95522387   -9377.7331    41.312018    295.37094 
   24300   0.95503328   -9379.9149    24.839948     299.5111 
   24310   0.95469415   -9382.1804    81.897345    297.78633 
   24320   0.95407056   -9384.8895    77.191526    295.76392 
   24330   0.95316035   -9387.2713    3.9599076    291.57082 
   24340   0.95225237   -9389.5497   -267.05346    298.38762 
   24350    0.9521222   -9391.2634   -285.96224    299.24148 
   24360   0.95297496   -9393.6121   -168.93488    299.69171 
   24370   0.95448488    -9396.705   -21.595307    301.39642 
   24380   0.95612356   -9400.4973     262.5626    295.16565 
   24390   0.95704154   -9404.5855    288.40095    291.47598 
   24400   0.95707437   -9408.5426    37.246277    296.74532 
   24410   0.95693322   -9411.9162   -112.40338    295.88827 
   24420   0.95716055   -9415.1441   -143.86904    295.90959 
   24430   0.95786497   -9418.6385     -55.5452    297.86561 
   24440   0.95881741   -9422.5476    34.210708    300.70592 
   24450    0.9596708   -9426.8193    232.91816    292.96967 
   24460   0.95990189   -9431.3458    97.041671     293.5513 
   24470   0.95976921   -9435.3682   -64.142869    298.45232 
   24480   0.95980642   -9439.1589   -80.681192     295.5263 
   24490   0.96012879   -9442.7714   -41.816104    292.34895 
   24500    0.9606285   -9446.5796   -13.350047    296.96479 
   24510   0.96116979   -9450.3626    107.74288    293.58921 
   24520   0.96145083   -9454.0149    28.218142    291.55629 
   24530     0.961659   -9457.3551   -130.92225    296.97586 
   24540   0.96227012   -9460.2811   -81.477544    295.51845 
   24550   0.96321278   -9463.4049    52.785808    291.26315 
   24560   0.96406282   -9466.4624    128.72479    291.26419 
   24570   0.96454863   -9469.3285    72.040082    294.27956 
   24580   0.96483363   -9471.7823   -39.727819    295.96145 
   24590   0.96523474   -9474.0156   -35.410559    298.75309 
   24600   0.96572145   -9476.4259    143.88002    297.40551 
   24610    0.9657956   -9478.9927    162.66927    291.21945 
   24620   0.96539903    -9481.183   -112.36063    295.81728 
   24630   0.96524957    -9482.592   -88.557717    294.66677 
   24640   0.96538418   -9484.2293    83.761445    288.90442 
   24650   0.96531549   -9485.8428    74.499847    288.02304 
   24660   0.96500754   -9487.1313    -38.62501    292.65587 
   24670   0.96474684   -9487.9062   -16.071974    291.37476 
   24680   0.96458013   -9488.6485   -139.65957    294.69723 
   24690   0.96484579   -9488.9532   -177.68514    298.26707 
   24700   0.96568777   -9489.4004    5.7120264    296.79744 
   24710    0.9665683   -9490.3993    199.93429    295.49427 
   24720   0.96685749   -9491.4183    248.75331    288.67631 
   24730   0.96637441   -9492.1969    34.450404    290.92126 
   24740   0.96568425   -9492.2226   -90.347885    289.51309 
   24750   0.96528551   -9491.7237   -191.03446    291.70796 
   24760   0.96546905   -9490.9662    -116.0709    295.20103 
   24770   0.96603304    -9490.362    100.54617    291.82925 
   24780   0.96637036   -9489.9678    83.514221     292.8914 
   24790   0.96643078   -9489.2519    40.236549    291.84589 
   24800   0.96634551   -9488.3959    59.384454    284.60347 
   24810   0.96614169   -9487.0402   -189.60426     294.0014 
   24820   0.96642534    -9485.072   -104.81286    300.60617 
   24830   0.96705789   -9483.2917    163.32793    292.29053 
   24840   0.96732099   -9481.9566    54.939921     293.6586 
   24850   0.96735061   -9480.0814    30.900712    296.91542 
   24860   0.96725128   -9478.1381    96.762762    297.83743 
   24870   0.96678932   -9476.4911    187.50458    292.96349 
   24880   0.96570669    -9474.817    91.605525    287.36518 
   24890   0.96429735   -9472.4505   -224.09599    293.00099 
   24900   0.96348641   -9468.8288   -301.22863    295.00118 
   24910   0.96363967    -9464.945   -170.74673    295.16424 
   24920   0.96440055   -9461.3555    -12.94761    297.38806 
   24930   0.96526742   -9457.9227    106.62288    297.67111 
   24940   0.96585716   -9454.4871    111.27559     297.5365 
   24950   0.96609857    -9450.954    110.11818    298.52479 
   24960   0.96595888   -9447.3541    152.92352     293.1456 
   24970   0.96535546   -9443.4904   -8.5924297    294.81968 
   24980   0.96469375   -9439.1346   -90.847952    297.43699 
   24990   0.96427406   -9434.2251   -65.426473    297.09729 
   25000   0.96404103   -9429.5211    1.4198269    293.78982 
   25010   0.96383295   -9424.8209    -30.11365    298.98477 
   25020   0.96362548   -9420.0574    153.65225    295.15208 
   25030   0.96296549   -9415.7803    129.28827    292.41269 
   25040   0.96187807   -9411.0521   -159.55448    297.93304 
   25050     0.961185   -9405.7163   -269.38841    303.66125 
   25060   0.96128164   -9400.5949   -67.701222    304.35015 
   25070   0.96162434   -9396.4513    199.90902    297.05228 
   25080   0.96144569   -9393.1812    69.465186    300.23168 
   25090   0.96098025   -9389.6388   -63.585533    303.18579 
   25100   0.96065096   -9386.2713   -15.426364    299.94236 
   25110   0.96037629   -9383.5476    47.697046      298.948 
   25120   0.95991361   -9381.4352    141.68443    294.77626 
   25130   0.95898439   -9379.8668    36.985478    299.81573 
   25140   0.95781078   -9377.8921   -69.462781     300.9485 
   25150   0.95681454    -9375.951   -173.94457    299.79877 
   25160   0.95633333   -9373.9978    -157.5425    298.32474 
   25170   0.95638093   -9372.4241   -95.591198    299.70723 
   25180   0.95676829   -9371.3172   -27.755736     303.2608 
   25190   0.95726882   -9370.5255    47.457932    304.82892 
   25200   0.95763555   -9370.1756    122.14113    301.39251 
   25210   0.95764788    -9370.115    91.556303    295.13756 
   25220   0.95738765   -9369.8637   -73.513948    299.83682 
   25230   0.95730917   -9369.3912   -113.64065     304.2547 
   25240   0.95757558   -9368.9905   -38.296054    301.13442 
   25250   0.95804531   -9368.9746   -73.743971    304.64104 
   25260   0.95873466   -9369.1092    58.446546    300.82218 
   25270   0.95936067   -9369.5551 -0.065745807    300.80706 
   25280   0.96001799   -9369.9775   -63.189392    305.12586 
   25290   0.96087757   -9370.3765     69.19616    298.64544 
   25300   0.96164316    -9371.147     16.97024    302.85211 
   25310   0.96233534   -9371.8056    63.923776    304.24351 
   25320   0.96287483   -9372.8135    42.571633    305.09706 
   25330    0.9632753   -9374.0549    42.738943    310.20928 
   25340   0.96351208    -9375.388    149.24376    300.96525 
   25350   0.96337659   -9377.0525   -83.327692    303.67099 
   25360   0.96343617   -9378.2383    -128.8311     304.7148 
   25370   0.96392538   -9379.7978   -45.412433    305.65768 
   25380   0.96457657   -9381.8086     144.0214     304.2024 
   25390   0.96480257   -9384.1384    238.22008    296.64348 
   25400   0.96432471   -9386.4561   -4.6208909    300.42014 
   25410   0.96377276   -9388.2747   -137.44564    303.86296 
   25420    0.9636022   -9390.1258   -87.280124    306.80072 
   25430   0.96368143   -9392.4998    96.679262      305.482 
   25440   0.96344086    -9395.497    240.88153    296.48631 
   25450   0.96247166   -9398.5929    9.6678619    295.10412 
   25460   0.96139001    -9400.996   -234.36977    298.55468 
   25470   0.96096274     -9402.76   -167.83947    297.09708 
   25480   0.96107774   -9404.8166    11.694034    294.14929 
   25490   0.96124601   -9406.9607   -31.557919     292.7442 
   25500   0.96158282    -9408.907   -256.75747    303.10816 
   25510   0.96269224   -9410.5071   -79.689257    300.15633 
   25520   0.96421047   -9413.1044    82.118387    305.19852 
   25530   0.96547605   -9415.9191    353.90101    301.75573 
   25540   0.96572309   -9419.2915    273.90755    297.63956 
   25550   0.96503762   -9422.2281    52.815593    298.88517 
   25560   0.96406129   -9424.8693   -7.0135704     295.7287 
   25570   0.96303774   -9427.3853   -34.515836    296.09076 
   25580   0.96208056   -9429.8328   -91.258464    298.87504 
   25590   0.96132781   -9431.9729    -17.62452    296.86105 
   25600   0.96062865   -9434.4036    5.5887217     293.8005 
   25610   0.95988907   -9436.5574   -35.254789      290.405 
   25620   0.95926056   -9438.3736   -155.75727    295.28331 
   25630   0.95903211   -9439.8433   -75.083788    293.67626 
   25640   0.95910788   -9441.2436   -105.97462    292.20527 
   25650   0.95955385   -9442.3521   -141.95676    297.03355 
   25660   0.96049131   -9443.6555    -38.38322    300.81853 
   25670   0.96157463   -9445.3583    199.04491    298.41959 
   25680   0.96214235   -9447.4527    156.16179     296.5443 
   25690   0.96224231   -9449.2592   -77.675291    305.67325 
   25700   0.96243317   -9450.8629    157.19443     295.6885 
   25710   0.96221971   -9452.9555    144.18729    288.99246 
   25720    0.9615304   -9454.6243   -54.343175    295.51808 
   25730   0.96087881   -9455.7976    24.626534    289.38077 
   25740    0.9601969   -9457.0248    -74.23953    290.41304 
   25750   0.95969603   -9457.6022   -93.478986    286.44318 
   25760    0.9595509   -9457.8743   -195.06173    291.38285 
   25770    0.9599969   -9457.8698   -82.157261      294.799 
   25780   0.96072308    -9458.235    114.76361    294.35865 
   25790   0.96114984   -9458.7788    111.83124    292.80549 
   25800   0.96127915    -9458.754   -61.979562    291.32106 
   25810   0.96160176   -9458.2654   -119.21138    295.70708 
   25820   0.96232422   -9457.8869   -41.322833    300.08561 
   25830   0.96320023   -9458.0275    134.90444    298.63724 
   25840   0.96370592   -9458.2128    197.09282    294.47233 
   25850   0.96359493   -9458.3285    87.273852    292.62929 
   25860   0.96319751   -9457.8295   -109.75975    293.71243 
   25870   0.96312665   -9456.8565   -178.24719    296.54259 
   25880   0.96361444   -9455.7116   -30.981941     293.2675 
   25890   0.96428789   -9454.9363    10.683554    297.39279 
   25900   0.96496014   -9454.0666    16.117369    301.08252 
   25910   0.96559641   -9453.1514    101.95503    297.81911 
   25920    0.9659369   -9452.2276    180.81686    289.32644 
   25930   0.96578286   -9451.2321    -44.52531    299.14121 
   25940   0.96561018   -9449.4756    68.470305    295.45373 
   25950   0.96527343   -9447.9495   -4.7964541    294.23866 
   25960   0.96493501   -9445.8079   -175.37467    301.16096 
   25970    0.9650853   -9443.1844   -31.412586    295.95672 
   25980   0.96540081   -9440.9123    67.456614    298.96549 
   25990   0.96550427   -9438.3709    114.96687    300.31637 
   26000   0.96523362   -9435.8518    87.901262    296.74741 
   26010   0.96467253    -9432.878   -16.169022    293.68076 
   26020   0.96413734   -9429.2325   -147.61354    300.47128 
   26030   0.96398068   -9425.2812    -7.547923    301.75562 
   26040   0.96387127   -9421.3363    119.63051    294.09852 
   26050   0.96347488   -9417.4273   -128.00693    306.18109 
   26060   0.96334161   -9412.6276    -45.19267    305.88988 
   26070   0.96334582   -9408.2731     160.0723    295.55553 
   26080    0.9628834   -9404.2737    143.22615    296.04933 
   26090   0.96187451   -9399.9988    68.218272    299.83335 
   26100   0.96056388   -9395.2357   -69.201507    297.29474 
   26110   0.95945419   -9390.0312   -293.43166    300.11635 
   26120   0.95922983   -9384.2282   -248.09814    301.45835 
   26130   0.95979807   -9379.0574    48.480965    303.92638 
   26140    0.9602219   -9374.8263    387.88997    295.44711 
   26150   0.95952223   -9371.4696    150.37541    296.38401 
   26160   0.95821895   -9367.2415   -137.77546    301.46223 
   26170   0.95721591   -9362.7601   -146.10087    301.95909 
   26180   0.95662511   -9358.5769   -52.437662    304.37614 
   26190   0.95617505   -9354.9037    95.057538    292.39087 
   26200    0.9555643   -9351.4409   -198.69061    297.89286 
   26210   0.95550938     -9347.41   -286.30859    305.41851 
   26220   0.95634767   -9343.8366    -40.22807    304.37604 
   26230   0.95740135   -9341.2414    210.18942    298.15891 
   26240   0.95792048   -9339.1464    107.64572    298.94672 
   26250   0.95809948   -9336.7026   -94.544282    302.75781 
   26260   0.95857953   -9334.2112   -164.25621    309.01333 
   26270   0.95954126   -9332.3386    119.18104    305.17533 
   26280   0.96024015   -9331.3739    209.46112    299.51457 
   26290    0.9603355   -9330.5446    17.921606    303.27719 
   26300   0.96032376   -9329.2351   -36.731091    302.36666 
   26310   0.96039713   -9328.2695    43.315327    302.11185 
   26320   0.96032048   -9327.5885    122.48925    300.18493 
   26330    0.9598712    -9327.297    29.782201    299.97535 
   26340   0.95927213   -9326.8181   -52.259221    301.45793 
   26350   0.95881335   -9326.1398   -92.024088    303.20748 
   26360   0.95859898   -9325.6657   -30.886503    304.83586 
   26370   0.95849427   -9325.4917    2.9381639    303.54683 
   26380   0.95837395   -9325.5872    27.004239    300.17433 
   26390   0.95817633   -9325.7598    21.690486    298.80782 
   26400   0.95789128   -9326.0207    1.3361863    297.26771 
   26410   0.95763354   -9326.0419   -185.38165    300.19616 
   26420   0.95797397   -9325.5335    -317.9403    306.98104 
   26430   0.95936002   -9325.6344   -151.66644    310.35868 
   26440   0.96134043   -9326.7874    146.85731    311.60682 
   26450   0.96298214   -9328.6853    344.18729    306.33999 
   26460   0.96359199   -9331.0602    306.18639    304.83763 
   26470   0.96318239    -9333.476    155.67479    304.27916 
   26480   0.96218446   -9335.7237     39.49565    301.15102 
   26490   0.96097092    -9337.821   -5.1941166    297.06314 
   26500    0.9597331   -9339.8215   -109.91221    300.01897 
   26510   0.95879437   -9341.4589   -193.36572    299.33808 
   26520   0.95849918   -9342.9728    -275.4624    303.75083 
   26530    0.9590518   -9344.5787    -90.31307    303.12883 
   26540    0.9599897   -9346.9391    12.123782    307.51553 
   26550   0.96094157   -9349.6398    76.713608       305.84 
   26560    0.9617336    -9352.736    59.194306    303.99996 
   26570   0.96235857   -9356.0701    33.077854    307.10957 
   26580   0.96286708   -9359.5581    33.128612    307.28721 
   26590   0.96332594   -9363.0278    -55.91809    306.01528 
   26600   0.96398403   -9366.7275   -33.623392    301.95725 
   26610   0.96483409    -9370.629   -23.960787    303.63042 
   26620   0.96579522   -9374.5992    47.956851     305.3851 
   26630   0.96660133   -9378.9745    237.68656    302.66304 
   26640   0.96664824    -9383.729    334.14661    295.14864 
   26650    0.9656609   -9388.3524    61.674711    299.69221 
   26660   0.96431207   -9392.4518   -65.040116    304.21813 
   26670   0.96305904   -9396.0989   -16.244838    294.79107 
   26680   0.96189349   -9399.4831   -189.36205    293.98679 
   26690   0.96126869   -9401.8667   -271.60275    303.18926 
   26700   0.96142393   -9404.4707    3.5777908    303.04316 
   26710   0.96164171   -9407.6078    142.59864    298.71716 
   26720   0.96143937   -9410.5742    63.497703    298.35498 
   26730   0.96100841   -9412.9848   -22.765694     293.3927 
   26740   0.96065871   -9414.8744   -159.91517    297.17504 
   26750   0.96074312   -9416.4529   -16.831637    296.94332 
   26760   0.96087917   -9418.4387     181.7022     293.3931 
   26770   0.96046164   -9420.2919    161.45351     289.3009 
   26780   0.95951868   -9421.6295   -99.300159    291.97005 
   26790   0.95880136   -9421.8949   -229.28044    294.38318 
   26800   0.95880214    -9421.936   -199.96776     295.8524 
   26810   0.95948373   -9422.1904   -66.497495    294.59543 
   26820   0.96047294   -9422.5157    30.494674    293.27327 
   26830   0.96144325   -9422.7625    42.657341    296.21049 
   26840    0.9622997    -9423.046    100.04362    294.37885 
   26850     0.962905   -9423.2033    46.180304    292.44446 
   26860   0.96339139   -9423.1062   -25.409657    295.36215 
   26870   0.96396454    -9422.788    13.537242    295.60843 
   26880   0.96456571   -9422.6483   -37.423027    301.50515 
   26890   0.96527174   -9422.6162     23.98821    303.32323 
   26900    0.9659038   -9422.6241    218.55126    292.07277 
   26910   0.96591517   -9423.0639    156.83309    291.77995 
   26920   0.96535966   -9422.9984     79.48476    292.06523 
   26930   0.96450201   -9422.6941    5.5176863    289.99297 
   26940   0.96360444   -9422.1852   -134.60967    296.08133 
   26950   0.96304027   -9421.1027   -78.545772    295.79364 
   26960   0.96274402   -9420.2516   -63.729857    294.82389 
   26970   0.96264445   -9419.2699   -31.050602    295.58827 
   26980   0.96263444   -9418.4157    71.877143     295.0056 
   26990   0.96240456    -9417.633    65.189588    293.60233 
   27000   0.96197461   -9416.7184   -100.22216    298.27462 
   27010   0.96177167   -9415.3104   -46.039463    297.10773 
   27020   0.96175383   -9414.2055   -9.4465342     291.5275 
   27030   0.96181818   -9412.8059   -110.42059    294.48368 
   27040   0.96222879   -9411.2857   -102.44674     301.9934 
   27050   0.96296288   -9409.8475    69.197441    301.91085 
   27060   0.96354294   -9409.2073    156.64969    304.14606 
   27070   0.96357049   -9408.6437    312.88396    295.79943 
   27080   0.96265414   -9408.4835    106.16629    291.01517 
   27090   0.96137623   -9407.3907   -309.94256    298.15734 
   27100   0.96094352   -9405.2855   -286.30562    299.55892 
   27110    0.9614595   -9403.6163   -57.102338     294.6013 
   27120   0.96228763   -9402.4451   -25.212787    299.67537 
   27130   0.96319289   -9401.3104    81.932996    301.42793 
   27140   0.96388383   -9400.5082    172.54184    299.79939 
   27150   0.96405042   -9399.8156    166.80605    296.59111 
   27160   0.96367745   -9399.1344    67.122132    293.79288 
   27170   0.96305041   -9397.9348   -55.084494    298.63778 
   27180   0.96251744   -9396.5066   -55.577899    299.85863 
   27190   0.96214796   -9395.1711   -52.401791    299.62832 
   27200   0.96195756   -9393.6894   -111.17835     299.2969 
   27210   0.96213102   -9392.3684   -148.52964    305.89655 
   27220    0.9627339    -9391.063    102.71074    298.38206 
   27230   0.96314223   -9390.4234    98.572305    298.10126 
   27240   0.96323425   -9389.7203    48.389012    296.54903 
   27250   0.96317057   -9388.6137   -17.116495    294.35514 
   27260   0.96316015   -9387.2965   -72.110308    297.82983 
   27270   0.96334582   -9385.7008    31.831827    295.91455 
   27280   0.96346448   -9384.5435    76.000756    300.14239 
   27290   0.96329222    -9383.336    123.97011      297.264 
   27300   0.96278511   -9381.9651   -112.54883    302.40074 
   27310    0.9625321   -9380.0331   -103.88019    303.08726 
   27320   0.96261628   -9378.2825     25.22742    297.67972 
   27330   0.96267037   -9376.8838    25.468808    299.08096 
   27340   0.96263175   -9375.3735    21.866852    300.52743 
   27350   0.96249377   -9373.7599    45.781234     299.8026 
   27360    0.9621927   -9372.1625    87.467068     296.8237 
   27370   0.96161438   -9370.5598   -1.2717739    298.04494 
   27380   0.96098573   -9368.2991   -76.264551    298.52336 
   27390   0.96055855   -9365.8762   -70.840717    296.71022 
   27400   0.96039314   -9363.2809   -168.95525    306.32311 
   27410   0.96070199   -9360.4798   -48.582329    309.87259 
   27420    0.9612136   -9358.1851    72.447604    306.50877 
   27430   0.96154202   -9356.1042    103.52349    304.67625 
   27440   0.96154362   -9354.1089     109.2034    305.23067 
   27450   0.96115953   -9352.2353    125.37691    300.43388 
   27460   0.96037778   -9350.3918   -7.8188205    299.76479 
   27470   0.95953832   -9347.9693   -94.099337    300.60886 
   27480   0.95895868    -9345.229   -117.55117    302.43068 
   27490    0.9587349   -9342.3115   -80.962142    305.54333 
   27500   0.95876979   -9339.6194   -15.458442    308.23948 
   27510   0.95884114   -9337.1749    101.45509    304.23863 
   27520   0.95861681   -9335.1091    98.529971    300.62652 
   27530   0.95804789   -9332.9009    13.934572    303.29511 
   27540   0.95737428   -9330.4301   -19.325637     301.7957 
   27550   0.95673775   -9327.7534   -56.923146    298.31954 
   27560   0.95629844   -9324.8709   -162.77897    301.94526 
   27570   0.95633672   -9321.7639   -121.81535    306.17716 
   27580   0.95678105   -9319.1091    24.633968    305.22846 
   27590    0.9571881   -9316.6847    151.27112    300.61644 
   27600   0.95716569   -9314.3926    72.627076    302.17049 
   27610   0.95689292   -9311.9477   -76.301353    304.82663 
   27620   0.95680626   -9309.1375   -35.586977    302.06749 
   27630   0.95683874   -9306.6192    46.316221    298.90323 
   27640   0.95679852   -9304.3204   -136.75106     311.9848 
   27650   0.95709165   -9301.6721   -14.073918    311.37272 
   27660   0.95746226   -9299.9724    188.84676      305.122 
   27670   0.95726399   -9298.9137    196.60941    300.17548 
   27680    0.9564504   -9297.6472   -61.910625    298.49896 
   27690   0.95579651   -9295.5656   -329.43298     305.0802 
   27700   0.95609373   -9293.2167   -156.49613    306.52338 
   27710   0.95696972   -9291.7447    62.815827    305.21068 
   27720   0.95779372   -9290.6338    -7.764697    307.61955 
   27730   0.95865973   -9289.7864    23.491782    311.30988 
   27740   0.95945771   -9289.2597    215.67445    302.08591 
   27750   0.95970375   -9289.3407    10.432733     308.4317 
   27760   0.95982148   -9288.9482    1.7147555    305.78104 
   27770   0.95997387   -9288.9149   -32.440465    307.97149 
   27780   0.96023198   -9289.1385   -60.658569    312.74446 
   27790   0.96066688    -9289.929    44.715709    309.51863 
   27800   0.96100559   -9291.2495    120.96548    304.22343 
   27810    0.9610371    -9292.909   -23.385825    306.46623 
   27820   0.96108952   -9294.5715    -48.43539    312.57799 
   27830   0.96126284   -9296.9543    84.302949    311.22302 
   27840   0.96118448   -9300.2724     92.72656    311.46519 
   27850   0.96075579   -9303.9641    91.833921    304.24112 
   27860   0.96006651   -9307.9669   -134.06594    307.98529 
   27870   0.95970204    -9311.834   -113.89838    306.67584 
   27880   0.95972499   -9316.1976   -13.716458    302.21774 
   27890   0.95982628   -9321.0314    11.997766    302.56859 
   27900   0.95989383   -9326.0463    13.501854    302.45367 
   27910   0.95989039   -9331.2288    55.514716    301.85489 
   27920   0.95971076    -9336.548    54.043352    297.48934 
   27930   0.95934842   -9341.8142     2.617799    299.27312 
   27940   0.95889025   -9347.0126    91.941854    296.93038 
   27950   0.95816768   -9352.0361   -75.177189    297.86842 
   27960   0.95767009   -9356.2958   -306.51765    304.21441 
   27970   0.95810069   -9360.2732   -186.28696    305.01354 
   27980    0.9591893    -9364.843    71.791595    304.93928 
   27990   0.96011774   -9369.6599     277.3062    297.65762 
   28000   0.96026817   -9374.4424    150.11521    297.32069 
   28010   0.95987105    -9378.433   -5.2924802    302.18839 
   28020    0.9594279   -9382.0476   -45.011797    297.99092 
   28030   0.95914457   -9385.2887   -102.10259    298.48245 
   28040   0.95915191    -9388.205   -44.810009    296.20514 
   28050   0.95932916   -9390.9251    -1.257157    294.87909 
   28060   0.95952841   -9393.4576    25.922973    297.20925 
   28070   0.95964651   -9395.6981    70.849892    293.15586 
   28080   0.95956718   -9397.8132    33.620542     293.4485 
   28090   0.95933042   -9399.7127     40.58009    294.04601 
   28100    0.9589364   -9401.1798    13.365437     290.3235 
   28110   0.95852426   -9402.2755   -146.14456    293.38916 
   28120   0.95854778   -9402.6089   -160.50585     292.6443 
   28130   0.95913964   -9403.0396   -103.34601    297.62295 
   28140   0.96004366   -9403.7727    167.49149    294.30443 
   28150   0.96054087   -9404.8295    119.05234     297.7849 
   28160    0.9606633   -9405.5137   -23.519789    299.85643 
   28170    0.9608496   -9405.9312   -66.761021    301.61092 
   28180   0.96124014   -9406.5404    12.749835    302.53803 
   28190   0.96161745   -9407.5006    105.78048    299.62629 
   28200   0.96166697   -9408.4615    163.77415    293.19757 
   28210   0.96123714   -9409.4415   -71.729421    298.70229 
   28220   0.96096014   -9409.7783    -200.6889    306.09534 
   28230   0.96126429    -9410.214   -4.9537482    299.46595 
   28240   0.96171295   -9411.3141   -5.3589998    302.80095 
   28250   0.96215254   -9412.3532    105.67357    296.57288 
   28260   0.96233206   -9413.7082    32.560679    299.53214 
   28270   0.96235989   -9414.7388    4.7934991    300.44118 
   28280   0.96238195   -9415.9734   -55.641931    306.42071 
   28290   0.96253219   -9417.1771    82.305308    301.49568 
   28300   0.96249322   -9418.8287    80.918379    297.59532 
   28310   0.96218519   -9420.2579    4.0389215    296.44668 
   28320   0.96185194    -9421.564   -116.53934    301.41616 
   28330   0.96178326   -9422.9029    47.060856    298.85314 
   28340   0.96158796   -9424.7152    159.11834    294.92508 
   28350   0.96087382   -9426.6673    100.14025    291.87757 
   28360   0.95983112   -9428.0553   -173.24395    294.58602 
   28370   0.95921943   -9428.5869   -218.05548    295.64665 
   28380   0.95927961   -9429.3605   -46.269158    293.73615 
   28390   0.95953736   -9430.3663    56.563303    294.38057 
   28400   0.95964567   -9431.3796    94.962694     288.3589 
   28410    0.9595108   -9432.1384   -71.264081    291.19255 
   28420   0.95954673   -9432.2596    -115.2691    294.25559 
   28430   0.95996052   -9432.2659   -39.638025    293.24554 
   28440   0.96058019   -9432.4878   -57.924792    296.24218 
   28450    0.9614038   -9432.6985    10.823235    300.39052 
   28460   0.96221186   -9433.3057    171.92503    301.84089 
   28470   0.96246374   -9434.2884    332.46476     294.6803 
   28480   0.96167171   -9435.5504    225.95172    287.36433 
   28490   0.96010872   -9436.0244   -113.18529    288.26868 
   28500     0.958782   -9435.3118   -299.40962    291.91603 
   28510   0.95833501   -9434.0623   -196.10063     292.1179 
   28520   0.95854043   -9433.0391   -26.819274    291.21487 
   28530   0.95888358    -9432.231    57.227304    293.15711 
   28540   0.95906116   -9431.1306    52.219337    291.07764 
   28550   0.95914211   -9429.5807   -153.74851     296.9636 
   28560   0.95967456   -9427.6564   -107.98627    300.58428 
   28570   0.96060453   -9425.9149    56.351491    299.46573 
   28580   0.96143381   -9424.3926    119.53559    299.58428 
   28590   0.96190807   -9422.9989    123.40256    300.87802 
   28600   0.96195137   -9421.4661    177.95449    295.18332 
   28610   0.96148559   -9419.8424   -43.849494    297.97091 
   28620   0.96106026    -9417.296   -129.15905    302.24718 
   28630    0.9610248   -9414.6039   -83.543906    302.26032 
   28640   0.96129097   -9412.1006   -68.206808    306.41425 
   28650   0.96174853   -9409.6569     120.8694    302.69351 
   28660   0.96184994    -9407.803    283.49909    294.96777 
   28670   0.96107131   -9406.0748    138.41122     293.6257 
   28680   0.95975777   -9403.8338   -84.150023    294.42904 
   28690   0.95861358   -9400.3124   -210.68313    293.43499 
   28700   0.95812944   -9396.3927   -274.51656    300.42443 
   28710   0.95846174   -9392.1519   -7.7582522    296.36926 
   28720   0.95891053   -9388.3563    159.93725     291.2828 
   28730   0.95887454   -9384.5638    165.41109    290.86934 
   28740   0.95827319    -9380.338    86.178137    292.43163 
   28750   0.95733159   -9375.7381   -26.126574    294.53435 
   28760   0.95638804   -9370.4768   -54.124635    293.40958 
   28770   0.95558841   -9364.8979   -85.727553    293.39147 
   28780   0.95502306   -9359.2338   -79.858988    296.80539 
   28790   0.95465932   -9353.5081    59.106056    291.59604 
   28800    0.9541621   -9348.1128   -56.091692    298.37155 
   28810   0.95377116   -9342.3947   -83.569955    300.03316 
   28820   0.95363614   -9337.0317   -69.963726    304.12239 
   28830    0.9537238   -9332.0792   -17.813223    300.57132 
   28840   0.95394174   -9327.7707    -72.36359    300.17552 
   28850   0.95442579   -9323.6247   -79.602785    298.64755 
   28860   0.95524753   -9319.7582   -122.14143    300.45254 
   28870   0.95649679   -9316.3855     -34.3689    306.93357 
   28880    0.9578909   -9313.8113    225.63109    300.91529 
   28890   0.95869743   -9311.8784     224.6714    296.97776 
   28900   0.95881985   -9309.9448    50.603524    298.14092 
   28910   0.95873626   -9307.9037   -67.268444    305.27173 
   28920   0.95878825   -9305.8756    60.451916    301.96407 
   28930   0.95869779    -9304.576    56.621029    305.61496 
   28940   0.95837094   -9303.4434    63.839384    306.27085 
   28950   0.95785502   -9302.5841   -88.000225    306.32532 
   28960    0.9575715   -9301.5791   -161.17724    307.76193 
   28970   0.95780278   -9300.8309   -45.079908    303.14284 
   28980   0.95821369   -9300.7956    115.00345    300.31093 
   28990   0.95829679   -9301.0736    103.47273    303.43935 
   29000   0.95801544   -9301.3855    32.614228    306.21849 
   29010   0.95756595   -9301.7501    47.241333     302.3962 
   29020   0.95695563   -9302.4725   -42.942356    307.51292 
   29030   0.95636818    -9303.148    82.507839    301.74401 
   29040   0.95554208   -9304.2668    60.398176    297.53035 
   29050   0.95448931   -9305.3458   -95.197463    300.93383 
   29060   0.95367113   -9305.8637   -150.94558    295.69238 
   29070   0.95333373   -9306.3051   -160.28138    293.24137 
   29080   0.95351583   -9306.6683   -109.77059    295.78708 
   29090   0.95406861   -9307.0894   -25.907085    300.65518 
   29100   0.95473689   -9307.6311    111.62442    297.63373 
   29110   0.95513762    -9308.497    38.220955    300.93011 
   29120   0.95538781   -9309.2147     61.16944    297.95624 
   29130    0.9554881   -9310.0938     -22.0602     301.5411 
   29140   0.95559054   -9310.7115    61.169667    299.75133 
   29150    0.9555388   -9311.7493     56.59878    300.33979 
   29160   0.95525984   -9312.7684    60.160433    301.63973 
   29170    0.9547672   -9313.9558    50.298528    295.04532 
   29180   0.95414106   -9314.8151   -161.18079    297.46509 
   29190   0.95395093   -9315.4677   -146.84199     299.2822 
   29200   0.95423906   -9316.0748   -5.8254453    298.31948 
   29210    0.9545798   -9317.3601    75.084497    300.42913 
   29220   0.95469061   -9318.5908    68.787962    299.51423 
   29230   0.95460508   -9320.0775   -58.820756    304.06387 
   29240   0.95464276   -9321.2632    23.940383     297.9948 
   29250   0.95469768   -9322.8639   -53.532608     298.9806 
   29260   0.95491883   -9324.2705   -92.900582    302.83326 
   29270   0.95542672   -9325.9305    3.8291931    306.55353 
   29280   0.95589552   -9328.1145    234.13823    301.31344 
   29290   0.95570134   -9330.8825     112.4812    298.49994 
   29300   0.95514936   -9333.2238   -193.88789    301.01546 
   29310   0.95517356   -9335.1676   -283.26673    307.67549 
   29320   0.95607987   -9337.3902    -29.56077    303.40344 
   29330   0.95724893   -9340.8293    6.1313471    308.37594 
   29340   0.95839158   -9344.6153    190.55547     304.2222 
   29350   0.95902895   -9348.8379    227.04988    298.58032 
   29360   0.95897435   -9353.2509    42.901006    303.58502 
   29370    0.9587018   -9357.4963   -26.698227    303.80327 
   29380    0.9584977   -9361.6766   -20.642304    296.07305 
   29390   0.95840582   -9365.8288   -122.38576    299.65117 
   29400   0.95866386    -9370.146   -94.813469    306.08527 
   29410   0.95923374   -9374.7132    37.116648    301.96059 
   29420   0.95976216   -9379.7385    58.427205    300.75667 
   29430   0.96010752     -9384.77    91.187279    302.40893 
   29440   0.96015469   -9389.7834    126.58999     298.3034 
   29450   0.95980661   -9394.6615    36.160916     298.9341 
   29460   0.95927168   -9399.1569     6.682218    297.62028 
   29470   0.95869038   -9403.2598   -30.721271     295.8014 
   29480   0.95817151    -9406.982   -59.291997    294.37832 
   29490   0.95783745   -9410.1944    -113.1078    295.10553 
   29500   0.95784129    -9413.039   -69.808807    297.50519 
   29510   0.95805995   -9415.7258    63.829599    295.54672 
   29520   0.95813379   -9418.4859    39.616935    296.28256 
   29530   0.95808455   -9420.7453   -19.535307    292.91547 
   29540   0.95814647   -9422.3558   -178.18829    297.76926 
   29550   0.95874225   -9423.8313   -82.772691    301.06185 
   29560   0.95960033   -9425.6379    211.53769    297.92722 
   29570   0.95983588   -9427.6664    381.75203    287.31298 
   29580   0.95889738    -9429.782    129.79418    286.92075 
   29590   0.95742238   -9430.6112   -184.35323    286.93927 
   29600   0.95647279   -9430.3342   -393.85708    294.91871 
   29610   0.95667364   -9429.5789   -135.83393    292.34159 
   29620   0.95744563   -9429.6108    3.1308415    296.38169 
   29630   0.95824352   -9429.6907    132.95111    295.64748 
   29640   0.95869926   -9429.6501    90.777363    292.82338 
   29650   0.95889102   -9429.5828    -54.39065    298.60992 
   29660   0.95918422   -9429.2979     57.07545    296.16225 
   29670   0.95934014   -9429.3155    41.343959    299.36826 
   29680   0.95933576   -9429.2509    27.759128    303.21512 
   29690   0.95919596   -9429.2827    107.70187    298.54423 
   29700   0.95877756   -9429.5277   -69.159888    301.85713 
   29710   0.95850329   -9429.3636   -85.751019    298.40831 
   29720   0.95853228   -9429.2502   -79.245995    296.12101 
   29730   0.95884737   -9429.1136   -72.594265    296.39939 
   29740    0.9594246   -9428.8617    17.409167    295.93724 
   29750   0.95995337   -9428.9849    168.02144    293.80469 
   29760   0.95999412   -9429.2533    137.18576    289.15658 
   29770   0.95963242   -9428.9142   -136.67077    294.27901 
   29780   0.95960807   -9427.9957    -136.1508     296.1633 
   29790   0.96004083    -9427.192   -19.712717    294.18771 
   29800   0.96064583    -9426.546   -77.379975    296.88429 
   29810   0.96154408    -9425.648   -90.150981    300.50842 
   29820   0.96278002   -9424.9686    35.595457    301.32488 
   29830   0.96398358   -9424.7104    162.72328    299.49654 
   29840   0.96472508   -9424.6731     187.0134    300.41669 
   29850   0.96485711   -9424.6543     192.2495    299.07569 
   29860   0.96435339   -9424.8532    97.435465    299.79714 
   29870   0.96347547   -9424.7371   -33.824263    301.10711 
   29880   0.96262779   -9424.4692   -74.549741     298.4059 
   29890   0.96196537   -9423.9577   0.31331368     289.6773 
   29900   0.96136382   -9423.5462   -169.53299     296.0102 
   29910   0.96120116   -9422.3115   -84.726043    293.62116 
   29920   0.96138417   -9421.5174   -57.640463    292.10716 
   29930    0.9617922   -9420.6115   -94.274209    299.59043 
   29940   0.96245915   -9419.4511    125.80167     292.1732 
   29950   0.96287478   -9418.7553  0.098413383    296.78202 
   29960   0.96323917   -9417.5945   -9.2197654    298.63404 
   29970   0.96366248   -9416.4929    32.443593    298.86272 
   29980    0.9639872   -9415.4631    74.332959    301.47937 
   29990   0.96408941   -9414.6486    70.006083    302.52422 
   30000   0.96393453   -9413.8485    91.647059    300.49095 
   30010   0.96347803   -9412.9572    46.576869    298.06324 
   30020   0.96284353   -9411.9863   -62.384875    298.79938 
   30030   0.96238448   -9410.6029   -159.27268    300.89882 
   30040   0.96241818   -9409.2769   -167.82859    305.36303 
   30050   0.96298009   -9408.1011    24.535808    300.38426 
   30060   0.96357997   -9407.4784    38.206531     299.3174 
   30070   0.96408057   -9406.7748    24.122744    301.19501 
   30080    0.9645163   -9405.9543    68.781343    297.45143 
   30090   0.96479755   -9405.2746   -21.153743    299.90248 
   30100   0.96513193    -9404.194    -25.50751    302.25381 
   30110   0.96556305   -9403.5839   -5.2286927     308.8443 
   30120   0.96598506    -9403.006    169.79036    301.32301 
   30130   0.96592127   -9402.9785    193.66707    293.94848 
   30140   0.96524845   -9402.7273   -14.766792    297.59572 
   30150   0.96454534   -9401.9474   -166.29236    305.29744 
   30160   0.96423253   -9401.0517     67.02289    299.38069 
   30170   0.96378563   -9400.9245    54.511859    299.10346 
   30180    0.9631008   -9400.3783   -28.023671    301.93377 
   30190   0.96243479   -9399.9347    18.151082    298.75576 
   30200   0.96169238   -9399.5381    3.7925905     296.4371 
   30210   0.96094261   -9398.7684   -155.70006    301.84951 
   30220   0.96057825   -9397.8931   -77.276993    306.31772 
   30230   0.96043954   -9397.4068    96.229646    300.93066 
   30240   0.96001577   -9397.5232    99.133833    299.26886 
   30250   0.95924891   -9397.4502   -6.0798855     297.5933 
   30260    0.9584577   -9396.9887   -133.33616    296.39459 
   30270   0.95805727   -9396.2287   -150.02181    294.42388 
   30280   0.95814963    -9395.216   -105.97009    294.17178 
   30290   0.95865852   -9394.4153   -143.67831    303.39165 
   30300   0.95961173   -9393.4906    29.634496    302.78676 
   30310   0.96057122   -9393.1931     162.4505    299.48472 
   30320   0.96105933   -9392.9667    206.49156    293.45636 
   30330   0.96092766   -9392.6211    73.884098    294.08827 
   30340    0.9604736   -9391.9287   -5.9570251    297.99874 
   30350   0.95999206    -9391.027   -76.365645    303.02284 
   30360   0.95968887   -9389.9735    1.4590015     298.8527 
   30370   0.95943719   -9389.1891   -51.862992    297.85455 
   30380   0.95932616   -9388.0892   -56.706112    296.20673 
   30390   0.95941821    -9387.037   -42.888007    296.04671 
   30400   0.95965254   -9385.9145   -15.536201    301.32785 
   30410   0.95994623   -9384.8579    28.982721    304.97637 
   30420   0.96012733   -9384.0983    127.32717    306.07674 
   30430   0.95987413   -9383.9168    234.84653    296.99012 
   30440   0.95888663   -9383.7964    59.979971    294.18285 
   30450   0.95763925   -9382.9257   -220.29855    301.79637 
   30460   0.95696352   -9381.5015   -168.97965     302.8947 
   30470    0.9568138   -9380.5212    35.317712    292.86564 
   30480   0.95666371   -9379.8803   -85.565357    297.00743 
   30490    0.9567574   -9378.7497   -159.09749     305.0066 
   30500   0.95734765   -9377.5719   -85.939755    310.42744 
   30510   0.95825206   -9377.0472     62.62037    309.20504 
   30520   0.95903743   -9377.2549    120.89358    309.93772 
   30530   0.95942864   -9377.9098    211.96329    306.60962 
   30540   0.95917226   -9379.0346    166.14252    301.65024 
   30550   0.95837571   -9379.9977   -33.596539     300.4173 
   30560   0.95760897   -9380.5346   -142.82561    302.54205 
   30570   0.95723533   -9381.2938   -70.948647    303.48342 
   30580   0.95706743   -9382.4942    54.222104    302.69448 
   30590   0.95671592   -9384.0812    128.73338    294.74323 
   30600   0.95599539   -9385.5359   -41.154749     288.7615 
   30610   0.95540887   -9386.3139   -304.74923    297.90216 
   30620   0.95569741    -9386.778   -177.02316    303.51972 
   30630   0.95658694   -9387.8185    91.827429    300.80928 
   30640   0.95728114   -9389.7697     158.8505    306.63385 
   30650   0.95742185   -9391.9322    241.21043    304.93301 
   30660   0.95680438   -9394.6764    101.14087     304.5707 
   30670   0.95578097   -9397.2534   -47.844042    303.59639 
   30680   0.95486662   -9399.6057   -177.25603    302.91993 
   30690   0.95445304   -9401.8827   -125.48079     299.9983 
   30700   0.95446598   -9404.5594   -54.349401    300.41967 
   30710   0.95465304   -9407.3277    27.394716     301.5269 
   30720   0.95476795   -9410.6805    79.871186    300.76696 
   30730   0.95464955   -9414.0584    41.950331    293.76251 
   30740   0.95445189   -9417.2112   -152.14474    294.32209 
   30750   0.95467918   -9420.0338   -122.69781    298.03333 
   30760    0.9553121    -9422.975    40.568859     297.3818 
   30770   0.95589729   -9426.3659    76.069156    296.09267 
   30780   0.95629053   -9429.4971   -19.701337    298.01613 
   30790   0.95675223   -9432.7305   -61.637401    301.28782 
   30800   0.95742327   -9435.8507    19.694042    298.92801 
   30810   0.95811065   -9439.0955    61.210614    294.65287 
   30820     0.958639   -9442.3417    77.640965    295.11088 
   30830   0.95893391   -9445.5856    76.748596    294.93151 
   30840   0.95896378   -9448.6752    87.130413    292.69294 
   30850   0.95872862   -9451.4299    19.615064    287.89777 
   30860   0.95844679   -9453.4963   -152.61198    291.65354 
   30870    0.9586177   -9455.3942   -182.70883    301.09307 
   30880   0.95932482   -9457.3235    62.418207    298.19526 
   30890   0.95992527   -9459.7585     158.4854     293.4068 
   30900   0.96010271   -9462.1513    1.5108536    296.18153 
   30910   0.96023924   -9464.0754   -83.373954    298.19813 
   30920   0.96066334   -9465.8642   -88.398903    298.95204 
   30930   0.96138117   -9467.6996    33.991442    298.46335 
   30940   0.96204168   -9469.9784    185.03157    293.75932 
   30950   0.96214931   -9472.1402    217.41955     284.0311 
   30960   0.96164105   -9473.8501   -118.34371    291.64918 
   30970    0.9613556   -9474.7929    -158.1655    298.89075 
   30980   0.96154052   -9475.8591    23.918384    295.33009 
   30990   0.96172342   -9477.3537    50.372413    296.24873 
   31000   0.96175036   -9478.4585    53.802057      291.606 
   31010   0.96162495   -9479.3501   -4.8869777    291.30889 
   31020   0.96149502   -9479.8842   -12.023802    291.66676 
   31030   0.96140419   -9480.3922   -10.772594      291.414 
   31040   0.96133001   -9480.7486     9.106728    290.49224 
   31050   0.96122992   -9480.8351   -25.118076    290.30834 
   31060   0.96121513   -9480.6798   -113.26638    294.28036 
   31070   0.96155867   -9480.2147   -97.325514    294.90073 
   31080   0.96227424   -9479.7525   -58.936988    296.16841 
   31090   0.96324927    -9479.455   -11.131913    300.97833 
   31100   0.96424749     -9479.36    234.91228    294.02781 
   31110   0.96460913   -9479.5265    217.81271    291.24142 
   31120   0.96425486   -9479.4145    77.948476    295.78976 
   31130   0.96352298   -9479.0164    119.71346      294.898 
   31140   0.96233443   -9478.7444    137.72392    289.72784 
   31150   0.96067716   -9478.0844   -98.825929    289.62952 
   31160   0.95924981   -9476.3656   -313.81798    291.60178 
   31170   0.95878141   -9473.7861   -343.18363    294.09922 
   31180   0.95943597   -9471.1865    -167.0445    298.52065 
   31190   0.96062892   -9469.0832    250.74547    293.01393 
   31200   0.96116829   -9467.5142    279.52061    289.58344 
   31210   0.96083698   -9465.1718   -10.348207    293.90376 
   31220   0.96046914   -9461.7084   -163.49675    294.01937 
   31230   0.96062123   -9457.7441   -146.32638    297.68289 
   31240   0.96123836   -9453.7434    29.058032    299.78154 
   31250   0.96184637   -9449.7992     50.53343    301.84646 
   31260   0.96234651    -9445.548   -12.425289    301.98021 
   31270   0.96289263   -9441.0423    41.150063    300.63689 
   31280   0.96330341   -9436.6411    185.88486    298.43347 
   31290   0.96314641   -9432.2913    167.98212    297.88976 
   31300   0.96241741   -9427.4613    11.784056     297.9487 
   31310   0.96159748   -9422.0818    -160.6356    303.78095 
   31320   0.96119679   -9416.2238   -78.057221    303.70779 
   31330    0.9610693   -9410.8732   -26.412201    306.30849 
   31340   0.96101118   -9405.8241     55.40784    300.91245 
   31350   0.96080852   -9401.1409     66.69045    296.59161 
   31360   0.96034475   -9396.7193    98.907584    294.97874 
   31370   0.95954091   -9392.3202    25.995434    298.02958 
   31380   0.95857375   -9387.7564    -57.55598    297.83928 
   31390   0.95773946   -9383.0315   -106.48262    293.23392 
   31400   0.95725444    -9378.441    -200.3859     298.8059 
   31410     0.957361   -9373.8225   -114.88413    301.53745 
   31420   0.95788534   -9369.8819    3.0475139    302.51822 
   31430   0.95844877    -9366.572    80.319231    301.80371 
   31440   0.95883107   -9363.6504   -3.8728971    309.07173 
   31450     0.959152   -9361.0343    136.70856    303.46821 
   31460   0.95911849   -9359.3132    89.213793    302.78261 
   31470   0.95871593   -9357.8314     91.78615    303.99615 
   31480   0.95795318   -9356.8376    133.76557    300.47051 
   31490   0.95668379   -9356.2501     122.1573    295.10402 
   31500   0.95498046   -9355.7568   -67.888861    293.31837 
   31510   0.95342067   -9354.4045   -296.17731    294.33237 
   31520   0.95279096   -9352.2788   -439.65035    302.69516 
   31530    0.9535128   -9350.4883   -142.87944    305.39746 
   31540     0.954761   -9349.8947    302.27851    298.06164 
   31550   0.95515932   -9350.0962    327.19032    298.14405 
   31560   0.95450632   -9350.1757    56.836122     300.3956 
   31570   0.95357353   -9349.5213   -125.12199    300.82707 
   31580   0.95298495   -9348.6131   -153.26505     295.4785 
   31590   0.95296663   -9347.7525   -312.74564    305.90548 
   31600   0.95387332    -9346.974   -67.820808    304.95191 
   31610   0.95512652   -9347.1148    126.88669    304.28974 
   31620   0.95601448   -9347.6973    262.84919    301.96548 
   31630   0.95610478   -9348.5989    215.90955    301.74181 
   31640   0.95544584   -9349.4046    69.489721     300.1945 
   31650    0.9545345   -9349.9152    -128.2006    300.98346 
   31660   0.95393345   -9350.1063   -65.138235    297.48325 
   31670   0.95356046   -9350.6407   -27.643551    295.95899 
   31680   0.95328094   -9351.1149   -56.869961    294.83171 
   31690   0.95319648   -9351.2779   -131.85136    297.29216 
   31700   0.95352925   -9351.2162   -145.36966    303.90321 
   31710   0.95433772   -9351.5352    6.1471007     305.6947 
   31720     0.955174    -9352.354    178.97928    304.85266 
   31730   0.95547565   -9353.7189    237.47211    301.60633 
   31740   0.95502721   -9355.2007    71.942812    302.31034 
   31750   0.95430135   -9356.4416   -136.68872    306.33844 
   31760   0.95392768   -9357.3097   -89.863092    301.09841 
   31770   0.95389322   -9358.4849   -59.899189    299.29134 
   31780   0.95403467   -9359.7508    29.319981    293.68316 
   31790   0.95419701   -9361.0766   -157.06838    301.78621 
   31800   0.95478991   -9362.1059   -80.520529    305.49872 
   31810   0.95567252   -9363.7928    160.49061    300.17819 
   31820   0.95613188   -9365.9401    196.05324    295.14702 
   31830   0.95600214   -9367.9252     10.90815    294.84755 
   31840   0.95579245   -9369.2329   -130.85874     295.9758 
   31850   0.95599959   -9370.4204   -176.06927    302.32535 
   31860   0.95678991   -9371.8285   -52.598567    303.56741 
   31870   0.95781357   -9373.6738    138.55485    298.93725 
   31880   0.95849737   -9376.1508    132.23291    300.11378 
   31890   0.95876792   -9378.3998    44.079162    302.35856 
   31900   0.95888429   -9380.5187    9.8595596    302.40301 
   31910   0.95893613   -9382.9917    79.410422    302.05673 
   31920   0.95872659   -9385.6876    133.59183     300.5226 
   31930    0.9580701   -9388.6279    77.275213    297.12268 
   31940   0.95712326   -9391.4172   -70.007106    296.75797 
   31950   0.95633571   -9393.7336   -154.63711    299.11204 
   31960   0.95596546   -9395.8268    5.1436686    286.78398 
   31970   0.95571326   -9397.9438   -165.67867    288.67134 
   31980    0.9559717   -9399.6418   -287.84462    298.60051 
   31990   0.95713999   -9401.3026    -88.47411    297.14936 
   32000   0.95874462    -9403.709    31.707113    298.24231 
   32010   0.96032571   -9406.1685     115.6639    298.52577 
   32020   0.96162186   -9408.7394    145.36509    299.46259 
   32030   0.96247167   -9411.2448    188.88584    298.61683 
   32040   0.96275686   -9414.1706    91.943146     304.5307 
   32050     0.962645   -9417.0866     173.6483    298.71428 
   32060   0.96200548   -9420.1446    92.527832    292.26458 
   32070   0.96106209   -9422.9145   -178.26378    299.97632 
   32080   0.96057915   -9425.2142   -161.58808    302.31146 
   32090   0.96057237   -9427.7977    45.048726    297.39784 
   32100   0.96048428   -9430.9693    82.578077    296.02053 
   32110   0.96010351   -9434.2793    52.733641     295.1614 
   32120   0.95953046   -9437.3456   -18.926121    291.63064 
   32130   0.95903723   -9439.9888    -173.1899    291.26524 
   32140   0.95906333   -9442.3064   -195.30798     294.3606 
   32150   0.95974628   -9444.8008   -129.53906    298.99927 
   32160   0.96088108   -9447.7903    35.958259    301.65116 
   32170   0.96197309   -9451.1298    226.71934    296.63859 
   32180   0.96240419   -9454.7839    255.74608    292.51181 
   32190   0.96206297   -9458.3944   -13.853431    297.45146 
   32200   0.96164183   -9461.4193   -113.30948    297.07866 
   32210   0.96157353    -9464.351   -77.568174    294.30553 
   32220     0.961734   -9467.7476    55.277975    296.18743 
   32230   0.96171285   -9471.2688    181.95128    288.82286 
   32240   0.96118817   -9474.9109   -37.541764    290.09975 
   32250   0.96070231   -9477.7966   -138.72014     288.8217 
   32260   0.96065483   -9480.4964   -131.28363    290.61593 
   32270   0.96101139   -9483.2071   -3.1518413    291.60563 
   32280   0.96145251   -9486.0754    24.287455    288.35037 
   32290   0.96190394   -9488.6676   -139.40464    294.78591 
   32300   0.96278227   -9491.2418   -50.350991    296.12296 
   32310   0.96389148   -9494.0844    111.48933    291.23299 
   32320   0.96477329   -9497.3421    34.224635    297.97726 
   32330   0.96550725   -9500.4418    123.54577    296.36112 
   32340   0.96590418   -9503.8679    162.25771     291.4712 
   32350   0.96580867   -9507.2932    54.841132    291.35044 
   32360    0.9654934   -9510.6462   -41.607133    292.47483 
   32370   0.96526545    -9513.986   -46.764297    292.57436 
   32380   0.96516977   -9517.5492    13.673337    292.35278 
   32390   0.96502684   -9521.4103    77.262039    289.28832 
   32400   0.96464053   -9525.1833    21.248388    287.01698 
   32410   0.96419233   -9528.9597   -152.60495    293.30372 
   32420   0.96412623    -9532.555   -10.950916    285.44707 
   32430   0.96418575   -9536.6021    -24.39855     285.4705 
   32440    0.9643265   -9540.2756   -57.944087     283.6063 
   32450   0.96470731   -9544.0515   -127.74771    288.63138 
   32460   0.96545779   -9547.8543    54.521091    286.15957 
   32470   0.96611894   -9552.0692     140.4507    284.44067 
   32480    0.9663324   -9556.2226    176.63798    279.35208 
   32490    0.9660157   -9560.0688    28.488482    279.80481 
   32500   0.96555915   -9563.4241    -149.4256    288.77287 
   32510   0.96550028   -9566.5023   -94.313035    288.07681 
   32520   0.96578237   -9569.4971   -7.7447281     285.4989 
   32530   0.96612617   -9572.7485    73.414263    286.65949 
   32540   0.96624515   -9575.8628    145.06555    282.06091 
   32550   0.96593769   -9578.7029    7.9443406     283.1666 
   32560   0.96554367   -9580.7975   -87.257992    285.62613 
   32570   0.96539731    -9582.731   -95.304605    288.08806 
   32580   0.96554529   -9584.4978   -24.911571    286.06616 
   32590   0.96585068   -9586.3878   -76.537379    292.15979 
   32600   0.96635073   -9588.0376     51.94399    290.08404 
   32610   0.96674181   -9589.7868    116.01459    283.78171 
   32620   0.96681297   -9591.3393    2.9004606    285.14409 
   32630   0.96683957   -9592.2831   -8.4623356    282.78853 
   32640     0.966917   -9592.8577   -30.335414    281.68977 
   32650   0.96713265   -9593.0451   -154.97149    295.39217 
   32660   0.96775406    -9592.738    89.895776    290.93213 
   32670    0.9682225   -9592.9823    130.62009    287.08293 
   32680    0.9682698   -9592.8915    88.081939    291.23399 
   32690   0.96795334   -9592.6155    167.87108    287.92258 
   32700   0.96713092     -9591.93   -15.088151    284.03732 
   32710   0.96634635   -9590.2145   -307.97979     291.3055 
   32720   0.96641597   -9587.6568   -123.67647    287.85641 
   32730   0.96697606   -9585.5179    26.412584    287.66645 
   32740    0.9674766   -9582.9561    149.30871    285.53096 
   32750   0.96753581   -9580.0622    131.45372    285.04119 
   32760   0.96714317   -9576.4134    19.311408    290.22777 
   32770   0.96662572   -9571.9522   -54.452252    287.65181 
   32780   0.96631836    -9566.925   -201.42532    288.30578 
   32790   0.96662994   -9561.1418   -138.95088    294.24278 
   32800    0.9673843   -9555.3527    148.72712    291.28056 
   32810   0.96778178   -9550.1429    140.38624    295.59898 
   32820    0.9676867   -9544.4306    109.24367    292.17487 
   32830   0.96727296   -9538.7679   -75.029129    294.09749 
   32840   0.96701811   -9532.5508   -96.487922    294.62769 
   32850   0.96707766   -9526.6418   -32.664568    293.57602 
   32860    0.9672914   -9521.1349    -74.13753    298.69009 
   32870    0.9677387   -9515.8074   -15.470288    298.60171 
   32880   0.96825275   -9511.2241    134.84248    295.78716 
   32890   0.96836414   -9507.2225    201.15492    292.20204 
   32900   0.96784923    -9503.569     51.37599    298.47185 
   32910   0.96701699    -9499.994    134.43786    294.80219 
   32920   0.96572055   -9497.2524    101.40575    288.85484 
   32930   0.96405531   -9494.0959   -166.30659    291.13856 
   32940   0.96280272   -9490.1839   -256.91586    290.71583 
   32950   0.96233417   -9486.2071   -178.59205    292.61047 
   32960   0.96245447   -9482.7131   -75.202702    297.81213 
   32970   0.96282855   -9479.5327    61.462772    294.84805 
   32980    0.9630911   -9476.7922    7.9964248    297.00569 
   32990   0.96329874   -9473.9064    19.916107    297.84269 
   33000   0.96343773   -9471.3163    102.39773    292.08416 
   33010   0.96329275   -9469.0294   -1.9294939    294.64033 
   33020   0.96314178   -9466.4419   -121.25667    300.06183 
   33030   0.96331858   -9463.7373   0.60673565    297.74675 
   33040     0.963557   -9461.5511    87.946097    291.83463 
   33050   0.96357581   -9459.4549   0.92644802    291.78805 
   33060   0.96355607   -9456.9768   -36.425822    298.10135 
   33070   0.96358473   -9454.7055    107.79923     295.2955 
   33080   0.96330517   -9452.7493    72.713056    296.29456 
   33090   0.96273588   -9450.5641    12.974736    297.37523 
   33100   0.96208594    -9448.212   -35.478117    296.16414 
   33110   0.96152887   -9445.8862   -91.882181    294.16605 
   33120   0.96127926   -9443.3515   -179.67925    301.75293 
   33130   0.96151159    -9440.762    69.997331    298.08163 
   33140   0.96159632   -9439.0119    162.24809    294.14757 
   33150   0.96116968    -9437.329    65.872189    292.96576 
   33160   0.96050959   -9435.1478   -122.72422    298.68295 
   33170    0.9601174    -9432.689   -48.647177    302.73983 
   33180   0.95987197   -9430.5529    62.870607    297.08354 
   33190   0.95950115   -9428.6494   -106.75268    298.70733 
   33200   0.95939361   -9426.3138   -49.450791    295.69974 
   33210    0.9594837    -9424.169    21.222952    293.97013 
   33220   0.95953625    -9422.051    -5.343007    296.62005 
   33230   0.95956227   -9419.9566     47.46093    297.97918 
   33240   0.95942984   -9417.9756    56.915574      299.673 
   33250   0.95909952   -9415.9683    33.730872    294.59868 
   33260   0.95869412   -9413.8252   -131.74829    299.38522 
   33270   0.95866817   -9411.3146   -175.74698    303.63537 
   33280   0.95922442   -9408.7629   -84.564608    300.84029 
   33290   0.96013999   -9406.8844   -12.141993    303.38955 
   33300   0.96110798   -9405.3866    188.31043     303.9503 
   33310   0.96150863   -9404.4096    287.94635    297.24807 
   33320   0.96104757   -9403.5891    26.082644    298.50251 
   33330   0.96041126   -9402.0202   -126.38533    302.41594 
   33340   0.96010735   -9400.4125   -59.125236    300.78056 
   33350    0.9599944   -9398.9724     30.33177    296.33076 
   33360   0.95981552   -9397.9469    12.259705    302.39241 
   33370   0.95949249    -9396.852    157.93019     301.4282 
   33380   0.95866431   -9396.2721    129.49762    294.10675 
   33390   0.95741472   -9395.3622   -159.61603    295.02755 
   33400   0.95658206   -9393.4473   -305.34493     300.6229 
   33410   0.95666936   -9391.4574   -148.41808    301.01532 
   33420   0.95731195   -9390.0435    3.8649556    299.43469 
   33430   0.95800341   -9388.8695    114.31511    296.08648 
   33440   0.95835671   -9387.9638    158.60033    295.13577 
   33450   0.95824999   -9386.8718     -22.3442    295.71946 
   33460   0.95821428   -9385.1784   -187.48782    299.66266 
   33470   0.95874222   -9383.3557   -28.567529    299.32269 
   33480   0.95940634     -9381.96    139.60707    298.76818 
   33490   0.95967407   -9380.8789    115.07085     301.4475 
   33500    0.9594899   -9379.8445    191.42222    293.72146 
   33510   0.95870905   -9378.9796    63.825505    294.74192 
   33520   0.95760672   -9377.3903   -17.258818    296.71819 
   33530    0.9565086   -9375.4928   -62.662213    288.26511 
   33540   0.95563296   -9373.1796   -261.77702    291.21431 
   33550   0.95555655   -9370.0988   -281.97787    299.07154 
   33560   0.95635193   -9367.1548   -3.5613194    297.30369 
   33570   0.95728493   -9364.7049    126.58255     298.0792 
   33580   0.95784768   -9362.3004    144.88743    299.30647 
   33590   0.95798464   -9359.7167    18.737236    303.55779 
   33600   0.95803795   -9356.9187   -42.112105    304.64102 
   33610   0.95823562   -9354.1629   -14.545993     302.2721 
   33620   0.95850826   -9351.5971      13.5991    303.15971 
   33630   0.95872229   -9349.1523    108.32732    299.01398 
   33640    0.9586519   -9346.7693   -18.557575    300.44454 
   33650   0.95863366   -9344.0298   -176.59045    307.71091 
   33660   0.95912234   -9341.3341   -36.914731    311.00095 
   33670   0.95974936   -9339.2768    226.11638    302.34945 
   33680   0.95975393   -9337.6942    161.18092    301.44618 
   33690   0.95921403   -9336.0235   -18.569005     305.7326 
   33700    0.9585918   -9334.1352    116.41266    294.45491 
   33710   0.95764799   -9332.5545    21.133005    289.04484 
   33720   0.95661945   -9330.2659   -280.01226    301.60791 
   33730    0.9563317   -9326.9602   -140.19663    301.08508 
   33740    0.9565455   -9324.2684    18.897103    299.40756 
   33750   0.95674541   -9321.8874    42.575669    304.01636 
   33760   0.95678471   -9319.4798    49.771529    304.36176 
   33770   0.95666632   -9317.0877    5.2355802     306.8085 
   33780   0.95648707   -9314.6452    67.544176    299.43222 
   33790   0.95614188   -9312.4198   -29.127012    300.96376 
   33800   0.95580699   -9309.9074    17.986904    303.58266 
   33810   0.95538244   -9307.5668    84.703176    302.29456 
   33820     0.954684   -9305.3442    15.105108    298.59498 
   33830   0.95395164   -9302.7036   -182.95944    301.36114 
   33840   0.95371736   -9299.4586   -145.26412    306.18719 
   33850   0.95392269   -9296.4377    39.593616    305.02579 
   33860   0.95405857   -9294.0395    76.397318    305.47133 
   33870   0.95393712   -9291.4827    65.429286     304.0981 
   33880   0.95362145   -9289.0018   -68.125398    310.93118 
   33890    0.9534553   -9286.3929   -39.070804    306.94562 
   33900   0.95347475   -9283.9288   -85.343668    306.24273 
   33910   0.95377462    -9281.507   -74.463462    309.20473 
   33920   0.95431926   -9279.3719    35.905134    308.33832 
   33930   0.95479303   -9277.8637    101.76755    308.97916 
   33940   0.95495376   -9276.4325    114.59517    305.95469 
   33950   0.95476015   -9275.1488     49.91357    305.31119 
   33960   0.95436151   -9273.9117    31.976588    306.20033 
   33970   0.95378815   -9272.8831     79.41267     304.7254 
   33980   0.95293098   -9271.9344      84.3258    294.63446 
   33990   0.95180766   -9270.7641   -123.64419    296.64985 
   34000   0.95097611   -9269.0223   -174.14964    301.18889 
   34010    0.9506504   -9267.0975   -59.631204    300.24361 
   34020   0.95056756   -9265.3719   -63.743217    298.49097 
   34030   0.95073153   -9263.4986   -134.86753    302.69879 
   34040   0.95130264   -9261.5408   -2.2807991    302.36569 
   34050   0.95195774   -9259.9675    70.617249    304.45051 
   34060    0.9523787   -9258.5413    160.89058    302.39531 
   34070   0.95231746   -9257.4213    96.459868    303.62102 
   34080   0.95190461   -9255.8741   -12.257465     296.8616 
   34090   0.95159342   -9253.8354   -297.07097    306.44837 
   34100   0.95211691   -9251.5842   -106.67062    308.89193 
   34110   0.95307713   -9250.2633    132.17994    308.52929 
   34120   0.95364805    -9249.605    284.37512    307.49361 
   34130   0.95335606   -9249.4642    133.86814    307.61752 
   34140   0.95256447   -9249.0923    -66.17466    307.19987 
   34150   0.95193437   -9248.4461   -161.22757    305.45759 
   34160   0.95178554   -9247.8099   -121.73766    305.50215 
   34170   0.95205689   -9247.5319   -49.364037    306.52533 
   34180   0.95252453   -9247.7877   -6.5503805       310.21 
   34190   0.95303115   -9248.5475    79.724171    308.01372 
   34200   0.95331999   -9249.7223    106.55874    305.76375 
   34210   0.95326734   -9251.2763    87.733065    303.92988 
   34220   0.95291126   -9253.1022    26.282938    305.82656 
   34230   0.95241022   -9254.9639     10.20462    304.83706 
   34240   0.95187725   -9257.2248   -102.19868    307.07898 
   34250   0.95159525   -9259.6435   -40.435385    307.86783 
   34260   0.95139759   -9262.7286    147.71557    303.15665 
   34270   0.95077409   -9266.3587    74.813772    296.94962 
   34280   0.94991697    -9269.819   -240.71868    303.93741 
   34290   0.94970785   -9272.7225   -210.52969     301.7883 
   34300   0.95023768   -9276.1781   -113.17753    304.23716 
   34310   0.95118658   -9280.2591    43.518059    304.37396 
   34320   0.95208168   -9284.7311    132.15697    300.54236 
   34330   0.95264065   -9289.3588    22.509007    302.82844 
   34340   0.95310789   -9293.8483    6.3697016    302.12583 
   34350     0.953592   -9298.4407    6.2094888    302.41675 
   34360   0.95406114   -9303.3079    49.301943    305.28528 
   34370   0.95439326   -9308.2923    61.827678    304.29534 
   34380   0.95455167   -9313.3553   -3.7642036    302.97268 
   34390   0.95468922   -9318.2327    55.647263    298.28895 
   34400   0.95467246   -9323.0103     61.05421    298.16671 
   34410   0.95443487   -9327.5192    45.957919    297.12514 
   34420   0.95405735   -9331.6545   -81.075714    300.20271 
   34430   0.95391012   -9335.3503   -162.31166    303.58291 
   34440   0.95430513   -9338.9391   -142.85311    302.84856 
   34450   0.95522122   -9342.6275   -65.449763    303.15426 
   34460   0.95643686   -9346.3853    22.231118    302.33621 
   34470   0.95766093   -9350.3147    78.238392     304.1144 
   34480   0.95867153   -9354.0669    160.45559    303.45987 
   34490    0.9592112    -9357.918    182.88538    300.71849 
   34500   0.95914562   -9361.6812     167.0906    298.79212 
   34510     0.958524   -9365.2129    37.165364    298.94203 
   34520   0.95773542   -9368.3009   -74.597376    298.09004 
   34530   0.95710776   -9371.0267   -29.355685    296.46078 
   34540   0.95655532   -9373.5117   -40.234892    297.75401 
   34550    0.9561107   -9375.8489   -125.41916     304.4528 
   34560   0.95600586   -9378.0804   -22.390242    299.88348 
   34570   0.95604768   -9380.4722   -54.577314     296.9308 
   34580   0.95628063   -9382.5787   -114.38615    299.13935 
   34590   0.95688357    -9384.543   -18.056477    295.88813 
   34600   0.95762983   -9386.6251    8.6827046    297.05471 
   34610   0.95838589   -9388.6296    31.014446    302.56945 
   34620    0.9590307   -9390.8002    193.60399    296.04231 
   34630    0.9591499   -9393.2232    76.207034    297.07884 
   34640   0.95897988   -9394.8721    -36.56145    298.68103 
   34650   0.95889823   -9396.4269   -33.094844    296.38863 
   34660   0.95891742   -9397.9308    38.876739    290.12207 
   34670   0.95885394   -9399.4238   -5.6824011    289.09837 
   34680   0.95882146   -9400.4647   -89.393957    291.92724 
   34690   0.95906536   -9401.0245   -89.150645    291.80493 
   34700   0.95967169    -9401.646   -163.49116    304.28942 
   34710    0.9607236   -9402.1908    149.24313    297.69016 
   34720   0.96149453   -9403.3762    142.27528    291.71977 
   34730   0.96187286    -9404.239   -58.038374    300.63399 
   34740   0.96234689   -9404.7539    117.04975    292.49632 
   34750   0.96254207   -9405.6415    68.147381    296.83093 
   34760   0.96243431    -9406.349    84.841211    297.80779 
   34770      0.96206   -9407.0771    23.430465    292.64331 
   34780   0.96161591   -9407.4297   -142.70798     296.1411 
   34790   0.96155563   -9407.3047   -68.272928    294.35233 
   34800   0.96174458   -9407.3775    14.543532    293.83335 
   34810   0.96192037   -9407.5993    18.603132    295.17583 
   34820   0.96202964   -9407.5583    13.989717    293.51443 
   34830   0.96218328   -9407.3254   -146.80554    297.37916 
   34840   0.96277186   -9406.8399   -96.535259    303.54006 
   34850    0.9636704   -9406.9133    174.86431    298.15847 
   34860   0.96405835   -9407.5144    318.21243    293.22843 
   34870    0.9634334   -9408.3805    233.22701     288.1001 
   34880   0.96202687    -9408.443   -91.864604    288.22741 
   34890   0.96084897   -9407.2645   -393.49133    298.13388 
   34900   0.96079392   -9405.6074    -212.2836    303.79335 
   34910   0.96144533   -9404.7036    122.44977    300.15235 
   34920   0.96181583   -9404.5192    178.19909    294.06275 
   34930   0.96166333   -9404.0326   -4.2562067    292.70369 
   34940   0.96150199   -9402.9866   -160.33707    301.00098 
   34950   0.96177397   -9401.5196   -23.469267     297.4172 
   34960   0.96220298   -9400.7254    -0.373467    297.68615 
   34970   0.96263643    -9399.717    64.909841    296.45627 
   34980   0.96293857   -9398.7212   -29.455907    298.97246 
   34990   0.96332742   -9397.3732   -62.214836    299.64097 
   35000   0.96394845   -9396.2304   -13.076724    300.76304 
   35010   0.96464223   -9395.2018    77.889776    303.22766 
   35020   0.96512369   -9394.3527    140.95279    301.50285 
   35030   0.96514503   -9393.7224    171.09803    300.03736 
   35040   0.96461281   -9392.9952     58.26206    298.38883 
   35050   0.96384661   -9391.8544   -94.102492    302.86183 
   35060    0.9632547   -9390.6766    42.129451      299.221 
   35070     0.962537   -9389.8576    52.370253      295.847 
   35080   0.96163621   -9388.8792   -88.305155    298.78901 
   35090   0.96093073   -9387.4684   -75.089924    300.63897 
   35100   0.96040757   -9386.0438    59.973345    294.01395 
   35110   0.95972105   -9384.8815   -22.030328     293.7299 
   35120   0.95904831   -9383.0867   -122.29171    296.23028 
   35130   0.95872765   -9380.6807   -92.823056    294.27303 
   35140   0.95871335   -9378.1693     7.697737    293.51406 
   35150   0.95870567   -9375.6418    -4.854936    301.24439 
   35160   0.95865016   -9372.9709     89.74397    299.51992 
   35170   0.95832843   -9370.4949    87.509629    295.38737 
   35180   0.95768861   -9367.8296    37.044726    298.54114 
   35190   0.95683024   -9364.7521    109.14925    288.31327 
   35200   0.95568916   -9361.5573   -188.66992    292.85311 
   35210   0.95503043   -9357.0675   -290.72553    300.31177 
   35220   0.95527147   -9352.2956   -141.13206    300.30544 
   35230   0.95606134   -9347.9412   -26.956053    298.02275 
   35240   0.95703555   -9343.6675    32.361588    299.27129 
   35250   0.95794167   -9339.5825     137.5663    300.44782 
   35260    0.9584405   -9335.5975    124.44558    305.80324 
   35270    0.9585456   -9331.3693    36.353666    305.73404 
   35280   0.95855122   -9327.2317    -81.57098    306.75896 
   35290   0.95877277   -9323.4111   -13.585867    308.64203 
   35300   0.95901655   -9319.9945    157.36712    304.24192 
   35310   0.95885004   -9317.1589    3.0031659    307.71621 
   35320   0.95861151   -9314.1515   -46.084919    304.98075 
   35330   0.95850954   -9311.3631    4.8675315    300.65325 
   35340   0.95841383   -9308.9951    15.391728    301.76878 
   35350   0.95825581   -9306.6894   -2.4955207    304.34221 
   35360   0.95811382   -9304.6098   -85.357387    310.56608 
   35370   0.95818183    -9302.767    24.569063    311.10348 
   35380   0.95815637   -9301.7297    203.20073     305.4735 
   35390   0.95748251   -9301.4645    180.40829    304.53712 
   35400   0.95618259   -9301.1627   -37.556672    305.61448 
   35410   0.95489734   -9300.5026   -173.83182    304.40127 
   35420    0.9541188   -9299.7023   -191.09602     307.5802 
   35430   0.95392396   -9299.1101   -88.979827    307.04016 
   35440   0.95407081   -9299.1629      -72.941     308.0666 
   35450   0.95445559   -9299.5681    22.680062    309.63815 
   35460   0.95476464   -9300.7381    192.27938    304.63829 
   35470   0.95449184   -9302.2156    149.42368    298.75287 
   35480   0.95372756   -9303.6135   -76.290265    300.79485 
   35490   0.95315124   -9304.3463   -249.95258    305.04771 
   35500    0.9533749   -9305.1131   -279.89106    308.48877 
   35510   0.95452218   -9306.4887   -25.026706     304.3514 
   35520    0.9558844   -9308.7409     162.5866    301.37771 
   35530    0.9568344   -9311.2942    125.68019    302.29655 
   35540   0.95739983   -9313.9071    78.217371    307.71446 
   35550   0.95764568    -9316.688    236.02279    299.35958 
   35560   0.95721595   -9320.1286     77.94519    301.31827 
   35570   0.95641239    -9323.065   -14.409955     298.4659 
   35580    0.9556682   -9325.9281   -206.15947    302.74338 
   35590   0.95551279   -9328.5379    -199.7486    307.63639 
   35600   0.95600584   -9331.9188   -18.888618    304.78294 
   35610   0.95662593   -9335.7899    90.846604    302.65307 
   35620   0.95700565   -9339.9991    95.730391    302.06831 
   35630   0.95705939   -9344.4218    104.55112    302.44276 
   35640   0.95673465   -9348.9841    105.67817    298.60528 
   35650   0.95607763   -9353.3658   -82.460038    298.90907 
   35660   0.95564587   -9357.2723   -218.59191    301.13362 
   35670     0.955906    -9361.047   -146.19267     296.7445 
   35680   0.95669932   -9365.1005    9.6491899    294.53711 
   35690   0.95753944   -9369.1791     110.4463    294.26138 
   35700    0.9580872   -9373.2087    41.986864    300.58772 
   35710   0.95847248    -9376.984    51.676175    303.36957 
   35720   0.95866961   -9380.8052     148.1892    297.95167 
   35730   0.95843636    -9384.542    80.222544    294.26149 
   35740   0.95793464   -9387.7634   -95.385906     296.0005 
   35750   0.95767569   -9390.1409   -145.19745    297.86805 
   35760   0.95786319   -9392.3188   -57.056695    298.70298 
   35770   0.95827239   -9394.5234    43.817932    296.38246 
   35780   0.95859189   -9396.8219    46.282727    298.95237 
   35790   0.95875976   -9399.1474    21.708511    302.18544 
   35800   0.95884963   -9401.0464    65.145349    294.14389 
   35810   0.95876051   -9402.8852    52.433182    291.12528 
   35820   0.95848203   -9404.4202    16.494311    293.89545 
   35830   0.95808887   -9405.4365    33.062796    292.36797 
   35840   0.95758713   -9406.3253   -35.040536    296.04588 
   35850    0.9571334   -9406.8791     -25.8699    293.85191 
   35860   0.95679264   -9407.2867   -112.87305    294.42886 
   35870   0.95680034   -9407.3386   -151.82681    296.95772 
   35880   0.95729764   -9407.3229   -47.426496    299.89872 
   35890   0.95796034   -9407.7334    163.24211    301.32114 
   35900   0.95813714   -9408.6588    235.64684    298.37349 
   35910   0.95758231   -9409.6793    60.291995    299.67122 
   35920   0.95669766   -9410.2272    33.802288    297.47493 
   35930   0.95569181   -9410.5722   -101.72885    296.55284 
   35940   0.95497374   -9410.5286     -219.152    298.42603 
   35950   0.95491451   -9410.2704   -90.645675    292.99737 
   35960   0.95522847   -9410.2823   -66.278508    296.03537 
   35970   0.95579443    -9410.147   -106.08533    303.93403 
   35980   0.95672119   -9410.2243   -28.356297    303.14353 
   35990   0.95781524   -9410.5332    88.288629    301.61122 
   36000   0.95868711   -9411.3872    165.11616    302.12506 
   36010    0.9590412   -9412.2208    195.06009    295.70642 
   36020   0.95880851   -9413.1251    22.324219    296.07622 
   36030   0.95843846   -9413.4183   -66.903223    295.09045 
   36040   0.95829063    -9413.611   -141.23664    301.95802 
   36050   0.95851895   -9413.6995    39.981445    299.23921 
   36060    0.9587081    -9414.354    29.900834    298.05849 
   36070   0.95880494   -9414.7994   -11.877456    297.72094 
   36080   0.95894806   -9415.0566    1.1110429    292.25581 
   36090   0.95914212   -9415.4394   -79.536572    301.19137 
   36100   0.95950557   -9415.8563    120.47214    302.66014 
   36110   0.95955108   -9416.6941    153.54126     296.3712 
   36120    0.9591475   -9417.3725   -45.869596    295.90385 
   36130   0.95880566   -9417.5041   -61.876037    292.83545 
   36140   0.95865876    -9417.634   -49.876975    295.69751 
   36150    0.9586412    -9417.677    38.853412    293.80004 
   36160   0.95852653   -9417.9978    28.122918    294.51396 
   36170    0.9582912   -9417.9971    5.7238053    296.79418 
   36180   0.95805125   -9417.8984   -119.43532    303.15579 
   36190   0.95814065   -9417.6094    -79.02123     302.5044 
   36200   0.95854487   -9417.7016   -28.108404    299.95931 
   36210   0.95905024   -9417.8268    78.374806    299.84509 
   36220   0.95932726   -9418.3708    148.33184    298.87954 
   36230   0.95915204   -9418.9836    61.984584    297.90868 
   36240   0.95873674   -9419.2654    34.691875    292.39933 
   36250   0.95819351   -9419.5396   -29.667749    292.33228 
   36260   0.95770167   -9419.5206   -99.236395    296.96586 
   36270   0.95746852   -9419.3053   -4.6884373    290.70574 
   36280   0.95730321    -9419.069    -29.45999     289.6982 
   36290   0.95722388    -9418.489   -66.977116    293.51618 
   36300   0.95731644    -9417.734    53.834748    294.21583 
   36310   0.95723035    -9417.239    143.22648    296.18136 
   36320   0.95665764   -9416.9609    114.42211    296.34852 
   36330   0.95564183   -9416.2895    31.095629    291.13182 
   36340   0.95453567   -9414.9667    -273.7587     295.7616 
   36350   0.95421493   -9412.7532   -312.63414    300.69475 
   36360   0.95489992   -9410.7938   -54.516106    295.13196 
   36370   0.95592024   -9409.2025    40.233418    294.54189 
   36380    0.9568676   -9407.5923    94.801787    298.13817 
   36390   0.95746879   -9405.9245    290.51004    293.66703 
   36400   0.95719557   -9404.5957     177.8825    294.92504 
   36410   0.95629893   -9402.5272   -73.734777    299.08697 
   36420   0.95555454   -9399.4999   -194.57155    300.80556 
   36430   0.95543327   -9396.0793   -243.24154    306.03908 
   36440   0.95606665   -9392.7588   -26.105602    304.60889 
   36450   0.95686311   -9390.1516    172.62741    299.54467 
   36460   0.95721038    -9387.664    114.54539    302.38647 
   36470   0.95710881   -9384.9738    180.90178    298.31595 
   36480   0.95642417   -9382.3663    109.35075    293.55535 
   36490   0.95534574   -9379.2844   -93.152841      293.131 
   36500   0.95449641   -9375.2439   -221.72682    298.09954 
   36510   0.95429891   -9370.7772   -141.31379    301.08787 
   36520   0.95453989   -9366.5964    112.85817    298.98415 
   36530   0.95445219   -9362.9187    248.65392    292.11495 
   36540   0.95361251   -9359.1753    31.847023    290.79825 
   36550   0.95263171   -9354.3739   -258.91728    295.09153 
   36560   0.95241328   -9348.5739   -307.40991     299.9126 
   36570   0.95318983   -9343.1672   -137.47201    309.55177 
   36580   0.95440153   -9338.5752    296.44667    303.08718 
   36590     0.954829   -9335.0787    294.80699    303.57986 
   36600   0.95425322   -9331.5226    145.43913    303.78816 
   36610   0.95313467   -9328.1053   -33.531312    300.00068 
   36620   0.95208902   -9324.0494   -286.25719    308.41274 
   36630    0.9518102   -9320.0343   -55.599374    307.27049 
   36640   0.95175552   -9317.1631    160.40973    298.72011 
   36650   0.95128222    -9314.582   -41.216157    298.22794 
   36660   0.95090577   -9311.5603   -247.50756    301.34173 
   36670   0.95128022    -9308.674   -170.88703     305.6299 
   36680   0.95220809    -9306.419    122.94237    304.87132 
   36690   0.95285794   -9304.9258    211.05956     302.1791 
   36700   0.95285841   -9303.5603    118.18487    297.24435 
   36710   0.95248852   -9302.0375   -94.208853    302.15484 
   36720   0.95232405   -9300.2771   -46.751674    298.62676 
   36730   0.95238922   -9298.8673   -131.43887     303.5157 
   36740    0.9528625   -9297.3922   -122.49713     309.2776 
   36750   0.95373168   -9296.5579    99.109205    304.06888 
   36760   0.95438752   -9296.3407    214.06915    300.44268 
   36770   0.95439857   -9296.5253    135.98264    303.51395 
   36780   0.95393466   -9296.5221   -28.916682    309.52152 
   36790   0.95347937   -9296.3686   -71.732425    308.76217 
   36800   0.95323026   -9296.5909   -23.712354    305.69368 
   36810   0.95304587   -9297.2141     34.72108    303.25836 
   36820   0.95275841   -9298.0744   0.62542374    301.82386 
   36830   0.95244245   -9298.8515    -5.681094    297.90569 
   36840   0.95215731   -9299.4774   -81.423236    299.52893 
   36850   0.95211404   -9300.0967    -107.7843    302.48909 
   36860   0.95241473   -9300.8666   -29.303606    298.78116 
   36870   0.95290594   -9301.7808   -95.405092    300.92688 
   36880   0.95372418   -9302.7833    -77.02307    304.76502 
   36890   0.95483671   -9304.1367      33.8656    305.87818 
   36900    0.9559254   -9305.6992    98.157942    303.78948 
   36910   0.95678787   -9307.5651   -2.3393297    307.77616 
   36920   0.95768569   -9309.4912   -47.599104     310.7323 
   36930   0.95873623   -9311.8138    95.813161    307.34461 
   36940   0.95955594   -9314.5311    175.88457    299.77727 
   36950   0.95991562   -9317.3329   -34.866192    301.87421 
   36960   0.96038231    -9319.768   -187.81139    307.55325 
   36970   0.96142944      -9322.3   -27.111556    308.05854 
   36980   0.96261101   -9325.8559    246.00768    307.89513 
   36990   0.96304478   -9329.9317    361.38688    304.86618 
   37000   0.96229275   -9334.6886    254.89721    306.17285 
   37010   0.96059446   -9339.2137    102.45693    299.31593 
   37020   0.95854398   -9343.1642   -281.08949    303.09432 
   37030   0.95719875   -9346.0848   -237.73379    299.72262 
   37040    0.9566833   -9348.9772    -218.8441    296.98568 
   37050    0.9568936   -9351.7149   -208.39886    303.11872 
   37060   0.95777636   -9354.5794     14.09156    301.19912 
   37070    0.9586949   -9357.9241    150.66012    299.62152 
   37080   0.95917572    -9361.186    140.03139    299.43414 
   37090   0.95923007   -9364.0405   -19.229765    301.63048 
   37100   0.95934243   -9366.5056   -133.73264    303.13609 
   37110   0.95989204   -9368.8057     -86.0349    302.73085 
   37120   0.96079487    -9371.097    -30.99406    302.94087 
   37130   0.96185412   -9373.4372     24.18638    306.45584 
   37140   0.96284777   -9375.9475    170.40697    303.98963 
   37150    0.9633736   -9378.5817    152.55689    300.18591 
   37160   0.96344778   -9381.0371   -13.204873    302.01252 
   37170   0.96350826   -9382.8919   -22.546378    301.50294 
   37180   0.96366558   -9384.8024   -24.942114    305.87432 
   37190   0.96384922   -9386.7211    141.66082    301.20095 
   37200   0.96360763    -9389.038    174.58033    300.23151 
   37210   0.96276413   -9391.2735    57.849827    301.71408 
   37220    0.9616473   -9393.0916   -55.663951     300.9199 
   37230   0.96062937   -9394.5381   -88.264863     302.7589 
   37240   0.95982797   -9395.9908   -68.761331    303.17218 
   37250   0.95924717   -9397.2936   -132.81422     304.8266 
   37260   0.95904125   -9398.7548   -82.691976    306.10161 
   37270   0.95908725   -9400.5397    91.199964    299.86791 
   37280   0.95887511   -9402.6356    124.39375    293.72661 
   37290   0.95829345   -9404.4577    -73.46941    297.18066 
   37300   0.95786743   -9405.6011   -137.38221     299.2741 
   37310   0.95786058   -9406.5252   -75.693885    298.12995 
   37320   0.95814699   -9407.7054   -40.533643    299.80415 
   37330   0.95855169   -9409.0093    114.38477    295.59816 
   37340   0.95865921   -9410.5644    57.445526    298.75853 
   37350   0.95855458    -9411.905   -69.145123    304.04059 
   37360   0.95865353   -9412.9999   -85.391491     301.0671 
   37370   0.95905475   -9414.1851   -56.510588    298.05637 
   37380   0.95970807   -9415.4488   -78.324544    297.54863 
   37390   0.96069224   -9416.7919   -138.99134    308.36125 
   37400   0.96208193   -9418.3867    161.83059    303.27564 
   37410   0.96309312   -9420.8738    271.09088    297.75639 
   37420   0.96322141   -9423.2376    263.15715    294.30793 
   37430     0.962498   -9425.4099    56.259835    293.69326 
   37440     0.961557   -9426.8559   -219.18278    298.19475 
   37450   0.96124251   -9427.6962   -213.54562    298.09845 
   37460   0.96162488    -9428.917   -62.485788    302.35192 
   37470    0.9622048   -9430.5801    174.77693    300.16648 
   37480   0.96228226   -9432.8309    191.49433    300.56701 
   37490   0.96167013   -9435.1991     232.3381    291.52432 
   37500   0.96030932   -9437.3948    55.518738    285.42389 
   37510   0.95871576    -9438.762   -279.42721    295.26705 
   37520   0.95785428   -9439.1077   -219.90453    294.82861 
   37530   0.95770792   -9439.6345    -66.62569    293.41404 
   37540   0.95782779   -9440.3745   -29.403702    293.00875 
   37550   0.95810452   -9440.8623   -109.35458     293.8325 
   37560   0.95876991   -9441.2423   -141.33976    299.02647 
   37570   0.95989056   -9441.6535    110.93845    290.78052 
   37580   0.96080611   -9442.4286    121.19969    293.69977 
   37590   0.96130229   -9443.1439    163.86786    298.01953 
   37600   0.96126294   -9443.8753    124.59303    298.51997 
   37610   0.96080096   -9444.5644   -35.045494    303.81847 
   37620   0.96035751   -9444.9757    8.3566831    298.42978 
   37630   0.95990345   -9445.5485    -26.36252    296.26218 
   37640   0.95949734   -9446.0291   -60.152157    303.06716 
   37650   0.95919605   -9446.6894    75.095081    302.28897 
   37660   0.95864242   -9447.7423    164.73565    294.68883 
   37670   0.95758009   -9448.8972   -17.604375     296.1456 
   37680   0.95649811   -9449.4838   -222.48493    297.56828 
   37690   0.95606235    -9449.641   -226.74203    296.16264 
   37700   0.95635961   -9449.8476   -72.559312      293.644 
   37710   0.95696975   -9450.5171    4.5393982    297.42938 
   37720   0.95758083   -9451.1997    114.03619    299.02601 
   37730   0.95787811   -9452.3252    78.199199    300.28039 
   37740   0.95791657   -9453.3438    25.216824    298.65388 
   37750   0.95785764   -9454.2548    69.308817    291.11445 
   37760   0.95760433   -9455.2844   0.83476011    291.51026 
   37770   0.95732273   -9455.8416   -61.631739    295.04032 
   37780   0.95717805   -9456.2128   -6.9044122    294.97785 
   37790   0.95706677   -9456.7088    18.487876    290.77123 
   37800   0.95690103   -9457.1425  -0.26188952    290.65443 
   37810   0.95672903   -9457.2101   -14.018539    286.56617 
   37820   0.95663433   -9456.9772   -109.66668    290.96501 
   37830   0.95684248   -9456.0696   -1.1012875    285.77688 
   37840   0.95719231   -9455.1894   -141.71039    292.00807 
   37850   0.95793831   -9453.7406   -47.327363    296.01207 
   37860   0.95889448   -9452.4929    117.93202    291.07604 
   37870    0.9595743   -9451.1865    112.45297    290.18185 
   37880   0.95992611   -9449.2816    12.377804    293.79803 
   37890   0.96022764   -9446.8935   -57.799431    297.35233 
   37900   0.96069356   -9444.2466    36.572718    294.91609 
   37910   0.96108541   -9441.7256    136.47948    293.34541 
   37920   0.96104798   -9438.9948    149.96416    294.47991 
   37930   0.96051376   -9435.8858    17.043306    299.87785 
   37940   0.95982686   -9432.4383   -9.6002651    298.76276 
   37950   0.95916302   -9428.6663   -50.395755    295.50835 
   37960   0.95866414   -9424.5646   -136.27397    297.86435 
   37970   0.95858875   -9419.8788   -153.33735    302.27158 
   37980   0.95899257   -9415.6716   -45.318699    308.57535 
   37990   0.95950376   -9411.6863    253.77732    299.77877 
   38000   0.95929627     -9408.42    217.82092    294.37024 
   38010   0.95837475   -9404.8691   -49.608669    301.30716 
   38020   0.95744244   -9400.7273   -35.055969    301.28923 
   38030   0.95662013   -9396.7256   -39.753182    298.36537 
   38040   0.95587947   -9392.8528   -30.922915    297.50855 
   38050   0.95524194    -9388.848   -96.788102    298.06009 
   38060   0.95487396   -9384.8598   -109.71283    297.37946 
   38070   0.95485599   -9380.8886    -60.69083    298.64009 
   38080   0.95506844   -9377.0211    -18.17672    299.76112 
   38090   0.95535698   -9373.3751    43.870695    295.78004 
   38100   0.95558174   -9369.9572   -60.806882    302.34588 
   38110   0.95595359   -9366.4671   -11.882106    304.62377 
   38120   0.95640502   -9363.4071    43.731933    299.74288 
   38130   0.95677964   -9360.7654   -1.6948879    305.02626 
   38140   0.95708218    -9358.257    207.68965    298.00134 
   38150   0.95681427   -9356.4418    104.02624    296.76727 
   38160   0.95614882   -9354.2348   -25.452591    296.49173 
   38170    0.9554908   -9351.7462   -7.2422356    295.09356 
   38180   0.95481194   -9349.5331    7.5576285    296.26769 
   38190    0.9540583   -9347.3797   -11.871776    298.94306 
   38200   0.95330497   -9345.2653   -96.375177    302.93672 
   38210   0.95278965   -9342.9378   -77.008518    301.45348 
   38220   0.95253246   -9340.9329   -92.231673    300.42104 
   38230   0.95257955   -9339.1293   -117.82597    308.91978 
   38240   0.95292671   -9337.5672    180.54958     298.7157 
   38250   0.95283058   -9336.7517    127.18834    295.89716 
   38260   0.95229618   -9335.6605   -46.950802    300.76777 
   38270   0.95181262   -9334.5896    -32.67217    298.00059 
   38280   0.95143212   -9333.3532   -11.279235    292.22437 
   38290   0.95110089   -9332.0742   -79.481732    295.02604 
   38300    0.9509972   -9330.4151   -110.51634    294.82285 
   38310   0.95128987   -9328.7324   -186.11038    302.43035 
   38320   0.95214633   -9327.2857    53.888952    303.05025 
   38330   0.95292172   -9326.5397    224.80904    300.49655 
   38340   0.95308664   -9325.9621    17.230694    304.65047 
   38350   0.95314914    -9324.987   -105.30323    308.22596 
   38360   0.95350772   -9324.3768    26.057682    306.44531 
   38370   0.95383608   -9324.3341    111.77155    304.13843 
   38380   0.95384551   -9324.6394     23.52022    306.50177 
   38390   0.95375304   -9324.9172   -55.289964    310.06526 
   38400   0.95377936   -9325.3363    45.754989    305.78979 
   38410   0.95372769   -9326.3178   -18.170548    307.72307 
   38420   0.95367306   -9327.4214    58.020277    306.40744 
   38430   0.95343807   -9328.9595    113.32233    300.22954 
   38440   0.95286222   -9330.8198   -49.093115    307.15702 
   38450   0.95231295   -9332.5219    19.873235    304.13216 
   38460   0.95171204   -9334.5537    7.2958286    300.74847 
   38470    0.9510595   -9336.4954   -43.600687    295.77453 
   38480   0.95056724   -9338.2435   -180.94208    298.30685 
   38490   0.95060877   -9339.8546   -173.42844    302.85685 
   38500   0.95120999   -9341.9082   -8.7558658    304.68811 
   38510   0.95186902   -9344.4796    206.75676    299.06905 
   38520   0.95194226   -9347.4866     136.8892    300.28578 
   38530   0.95152632   -9350.2437   -14.677788    300.55272 
   38540   0.95115729   -9352.6896   -216.65619    300.98549 
   38550    0.9514568   -9354.7768   -211.52331    297.72952 
   38560   0.95254816   -9357.2296   -177.33307    301.42224 
   38570   0.95425761   -9360.2713    60.466028    300.79552 
   38580   0.95590944   -9363.3883    256.38766    289.24393 
   38590   0.95691385   -9366.6789    56.723665    298.30311 
   38600   0.95764173   -9369.4923     154.2321    291.91491 
   38610   0.95800117   -9372.4432    13.317505    297.68722 
   38620   0.95824145   -9375.1218     9.977805    301.20254 
   38630   0.95847569   -9377.9937   -24.848417    307.72924 
   38640   0.95871269   -9381.1258     155.0992    305.30413 
   38650   0.95849125   -9384.9155    226.37941    295.82782 
   38660   0.95756632   -9388.5666   -17.078923    298.75587 
   38670   0.95654272   -9391.6498   -58.966208    296.27689 
   38680   0.95565427   -9394.7254   -26.447646    295.43255 
   38690   0.95478253   -9397.6107    39.560045      288.107 
   38700   0.95383826   -9400.4172    -212.9381    294.63839 
   38710   0.95347956   -9402.4594   -273.21681    300.22986 
   38720   0.95398231   -9404.6982   -79.185296    300.84933 
   38730   0.95479636   -9407.3762    168.25578      296.541 
   38740   0.95516062   -9410.5099     171.7241    297.20119 
   38750   0.95492329   -9413.2961     166.2334    291.00167 
   38760   0.95414813   -9415.8656   -6.3983725    288.96922 
   38770   0.95334766   -9417.6033    -232.8621    295.41785 
   38780   0.95320804   -9418.7564   -192.20917    294.14537 
   38790   0.95376394   -9420.1466   -155.51012    297.46131 
   38800   0.95485909   -9421.4927    15.035424    295.97409 
   38810   0.95603095   -9423.2951    87.076914    297.60809 
   38820   0.95694334    -9424.958     189.4328    293.80092 
   38830   0.95732909   -9426.5494    100.20048    294.81989 
   38840   0.95736397   -9427.6709    21.724097    297.22313 
   38850    0.9572973   -9428.5883    45.672886    290.74132 
   38860   0.95714123   -9429.2744   -92.549366    293.04818 
   38870   0.95724965   -9429.5271   -89.590516    295.74506 
   38880   0.95761521   -9429.7623     103.5987    290.78344 
   38890     0.957721   -9430.3015    66.076862    292.85937 
   38900   0.95763919   -9430.2476   -99.947956    292.71645 
   38910   0.95789682   -9429.7188   -237.25781    298.09572 
   38920   0.95889257   -9429.3291   -50.697928    302.59454 
   38930   0.96005796   -9429.4941    372.89718     291.9564 
   38940   0.96018731   -9430.3411    292.73916    291.91474 
   38950   0.95931083   -9430.7779      69.5011    292.16577 
   38960    0.9581188   -9430.6433   -66.013703    289.81395 
   38970   0.95708153   -9429.9433   -176.30228    296.46259 
   38980   0.95652257   -9428.7987   -122.23912    295.52209 
   38990   0.95639387   -9427.8969   -105.93333    291.37371 
   39000    0.9566701   -9427.0656   -140.75297      297.236 
   39010   0.95734534   -9426.1878    130.81621    289.32857 
   39020   0.95773841     -9425.95    88.369159    292.37326 
   39030   0.95781555   -9425.2069   -6.8086597    294.17549 
   39040   0.95791933     -9424.26    -76.06349    294.38894 
   39050   0.95826461   -9423.1907     7.660552    289.79285 
   39060   0.95864979   -9422.2712    27.899814    288.73453 
   39070   0.95895763   -9421.1708   -2.8886214    291.51937 
   39080   0.95928269   -9419.8586   -23.000635    292.28655 
   39090    0.9596865    -9418.436   0.19602179    297.94433 
   39100   0.96006094   -9417.1724     200.5485    287.75365 
   39110   0.95989008   -9416.1933    65.192825    288.52111 
   39120   0.95948258   -9414.4554   -124.55657     290.2223 
   39130   0.95942941   -9412.2648   -150.10005    293.66985 
   39140   0.95983464   -9410.0091     14.41934    291.13085 
   39150   0.96029406   -9408.1964   -17.541906    297.56144 
   39160   0.96077579   -9406.1855    63.940553    298.61713 
   39170   0.96108648   -9404.4709    99.724256    301.84026 
   39180   0.96108162   -9402.8277    101.88337    299.03817 
   39190     0.960764   -9401.2701    23.239659    297.06883 
   39200   0.96030111   -9399.5644    52.382414    291.50929 
   39210   0.95968499   -9397.7632   -67.590294    295.65521 
   39220   0.95923157   -9395.6419   -141.13056    300.55582 
   39230   0.95919094   -9393.3964   -90.510695    301.58167 
   39240   0.95949117   -9391.4267   -94.880321    306.43749 
   39250   0.96008307   -9389.7763    48.296128    302.76394 
   39260   0.96058255   -9388.6319    157.40864    298.45803 
   39270   0.96061283   -9387.6237    112.56644    296.78573 
   39280   0.96028298   -9386.4008    -70.25826    302.29328 
   39290   0.96011027   -9384.8898   -45.245781    296.37468 
   39300   0.96015779    -9383.511   -94.881189     299.1774 
   39310   0.96044199   -9382.1391    51.150043     298.1928 
   39320   0.96062103   -9381.0846    99.380291    295.21184 
   39330   0.96051653   -9379.9247   -56.244201    300.22693 
   39340   0.96055999   -9378.4022   -121.07162    307.66822 
   39350   0.96091449   -9377.0603    120.80874    302.62891 
   39360   0.96100211     -9376.66    83.778129    302.29561 
   39370   0.96077936     -9375.94    42.492114    299.08567 
   39380   0.96041552    -9375.331   -49.580366     301.4854 
   39390    0.9601774   -9374.4844   -106.26355    299.19299 
   39400   0.96033993    -9373.481   -198.47478     298.4817 
   39410   0.96116872   -9372.6229   -142.93562    303.60751 
   39420   0.96250493   -9372.2546    58.848858    303.93876 
   39430   0.96376149    -9372.397    152.52021    306.46435 
   39440   0.96455416   -9372.7476    202.88395     306.7305 
   39450   0.96472309   -9373.3934     119.6676    305.62205 
   39460   0.96449205   -9374.2429   -11.916798    307.65676 
   39470   0.96421581   -9375.1087    77.335517     298.3405 
   39480   0.96375608   -9376.0763   -34.254192    299.49594 
   39490   0.96334247   -9376.8425   -77.759779    301.98656 
   39500   0.96315961   -9377.8122    5.3385576    297.17233 
   39510   0.96298319   -9378.9565    21.895705    296.45486 
   39520   0.96271464   -9380.1718   -3.6046759    299.22816 
   39530   0.96240449   -9381.2056    17.968166     295.7189 
   39540   0.96207014   -9382.3154   -113.00179    298.13393 
   39550   0.96206652   -9383.2741     -160.447    300.91921 
   39560   0.96259789   -9384.1768   -90.371662    301.10088 
   39570   0.96346617   -9385.6297    58.749468    301.63147 
   39580   0.96421418   -9387.5858     153.0452    299.83189 
   39590   0.96450484   -9389.8527    131.60836    299.60309 
   39600   0.96433221   -9392.2606    133.76171    297.28901 
   39610   0.96371228    -9394.563    39.206868    294.65843 
   39620    0.9629359   -9396.5521   -149.79333    298.77493 
   39630   0.96256131   -9398.1769   -121.35274    297.28355 
   39640   0.96260369   -9400.0355   -68.833844    297.27037 
   39650   0.96286308   -9402.3473    57.509923    296.36173 
   39660   0.96297753   -9404.7164    102.72061    287.98462 
   39670   0.96284993   -9406.7831   -151.01949    294.74848 
   39680   0.96312874    -9408.502   -113.79852    299.45141 
   39690   0.96377292   -9410.7095    87.371785    299.35919 
   39700   0.96416261   -9413.5438     234.8732     292.9091 
   39710    0.9638508   -9416.3957    94.315308    290.58574 
   39720   0.96320003   -9418.8174   -113.46041    293.18475 
   39730   0.96283078   -9420.6498   -117.02003    293.58745 
   39740   0.96282486   -9422.7919   -28.664517     297.2962 
   39750   0.96288074   -9425.2068    165.93308     290.8593 
   39760   0.96248284   -9427.7967    57.007919     289.4168 
   39770   0.96185668   -9429.6802   -100.42109    291.69381 
   39780    0.9614972   -9431.3939   -160.61245    295.23538 
   39790   0.96159501   -9433.0519     8.033141    288.10821 
   39800   0.96180172   -9434.8957   -72.435833    291.89319 
   39810   0.96220599   -9436.2925   -26.637816    291.90869 
   39820   0.96276701   -9437.8337   -37.773021    294.27611 
   39830   0.96346612   -9439.3929   -14.262063    297.69431 
   39840   0.96421273   -9441.0798    153.10384    291.97171 
   39850   0.96454499   -9442.8853     133.9164    291.48872 
   39860   0.96446288   -9444.5431   -3.0252564     292.3545 
   39870   0.96436142   -9445.6338   -74.002895    290.62288 
   39880   0.96450721   -9446.7297   -82.696758    296.13767 
   39890   0.96488361   -9447.7701    77.981481    297.49407 
   39900   0.96507132   -9449.1301    88.651909    296.47706 
   39910   0.96499007   -9450.5406   -27.487728    294.81094 
   39920   0.96499393   -9451.6687    -102.9497    295.31149 
   39930   0.96531346   -9452.7229   -26.205475     294.9483 
   39940   0.96577182   -9453.9427     34.90863    295.15327 
   39950   0.96613484   -9455.2808    104.32498    290.31451 
   39960   0.96627883   -9456.4572   -146.37346    299.90954 
   39970   0.96680944   -9457.3316   -113.79061    305.22232 
   39980   0.96772912    -9458.629    101.17455    300.23562 
   39990   0.96844878   -9460.6424    80.885143    303.21992 
   40000   0.96885919   -9462.9159    200.68653    300.62677 
   40010   0.96865118   -9465.7745    217.13729    293.69755 
   40020   0.96774571    -9468.442   0.38880994    290.91295 
   40030   0.96675472   -9470.3196   -164.29861    289.98366 
   40040   0.96625074   -9471.9787   -229.56043    294.64652 
   40050   0.96643662   -9473.5936   -88.529853    293.20965 
   40060   0.96701079   -9475.5477   -47.283752    295.78662 
   40070   0.96773077   -9477.6305    133.17265     294.1071 
   40080   0.96807715   -9480.1708    176.62458    296.21908 
   40090   0.96782653    -9482.754    121.32668    296.16448 
   40100   0.96715516   -9485.2793    17.799155    296.48331 
   40110   0.96633537   -9487.6154     56.62186    292.30732 
   40120    0.9652753   -9490.1585    65.399962    289.36055 
   40130    0.9639474   -9492.5746   -58.225031    291.81632 
   40140   0.96269779   -9494.4275   -103.66435    288.96382 
   40150   0.96176733   -9495.8998   -196.98491    290.29595 
   40160   0.96141782   -9496.9972   -140.57617    289.55734 
   40170   0.96154601   -9498.0702   -68.630151     291.5966 
   40180   0.96191673   -9499.3101    4.3138716    294.08898 
   40190   0.96229116   -9500.7202    84.663068    297.35081 
   40200   0.96236173   -9502.3053    203.12295    292.67462 
   40210    0.9618276   -9504.1389    23.182245    295.80777 
   40220   0.96112656   -9505.4042   -69.910923    294.35384 
   40230   0.96061513   -9506.4558   -45.382772    292.67667 
   40240   0.96022143   -9507.3916    24.413088    287.64728 
   40250   0.95976227   -9508.2196   -36.850127     289.5633 
   40260   0.95936117   -9508.5985   -34.697919    290.91156 
   40270   0.95906609   -9508.8406   -50.739925    290.63507 
   40280   0.95892994   -9508.7971   -78.580229    290.21097 
   40290   0.95906055   -9508.4855   -75.549908    290.47507 
   40300   0.95944217    -9508.069    -11.17866    288.84227 
   40310   0.95995613   -9507.3275   -53.881344    286.84696 
   40320   0.96069451   -9506.2384   -83.607478    292.14023 
   40330   0.96168611   -9505.0784    131.40125     294.8059 
   40340   0.96228075   -9504.1547    363.81191    285.49786 
   40350   0.96180136   -9503.3372    125.68388    285.35546 
   40360   0.96082993   -9501.2785   -138.16612     288.5533 
   40370   0.96020423    -9498.299   -151.27858    288.94501 
   40380   0.96004911   -9494.9718   -73.681502    291.54958 
   40390    0.9601208   -9491.6836    71.859266    291.98771 
   40400   0.95996987   -9488.2858    133.84005     288.3559 
   40410   0.95940846   -9484.4702     10.74522    285.82567 
   40420   0.95877223   -9479.8049   -111.14131    288.89244 
   40430   0.95845383   -9474.5843   -188.57454    298.22977 
   40440   0.95867684    -9469.063   -14.377205    296.08239 
   40450     0.958998   -9464.1364    161.71045    286.58805 
   40460   0.95888518   -9459.3875    65.774664    289.87327 
   40470   0.95850331   -9454.0687   -2.8589238    288.34667 
   40480   0.95817915   -9448.4899    -214.0493     292.7962 
   40490    0.9584606    -9442.619   -121.81794    299.69601 
   40500   0.95909343   -9437.3122    256.94945     292.5616 
   40510   0.95903747   -9433.2424    171.24757    295.75479 
   40520   0.95836391   -9428.9064    11.905014    293.81883 
   40530   0.95759739    -9424.543   -79.235874    293.78283 
   40540   0.95702797    -9420.077   -122.57244    297.14339 
   40550   0.95685735   -9415.9328    -190.6919    304.87707 
   40560   0.95724688   -9412.1336    3.4578275    303.37584 
   40570   0.95768325   -9409.3147    212.89118    293.57722 
   40580   0.95753297   -9407.0545    77.729744    294.88362 
   40590   0.95708223   -9404.5349   -93.280456    300.22132 
   40600    0.9568626   -9401.8085   -78.408054    298.52597 
   40610   0.95694492   -9399.4214    -91.43975    297.88965 
   40620    0.9573305   -9397.1034   -12.171044    294.21117 
   40630   0.95780128   -9395.3819    52.063724    297.17942 
   40640   0.95809037   -9393.6097    142.33813    295.80404 
   40650   0.95799103   -9392.0093   -31.255583    300.04079 
   40660   0.95795141   -9390.0502   -128.04719    305.37194 
   40670   0.95826805   -9388.3362    64.651169    296.53034 
   40680   0.95846909   -9387.2773    83.559579    292.55058 
   40690   0.95841684   -9385.8109     5.184273    295.65859 
   40700   0.95832016   -9384.2332   -43.045562    300.76018 
   40710   0.95834905   -9382.6984   -26.289123    301.30928 
   40720    0.9585086   -9381.2878   -107.67949    306.89253 
   40730    0.9590222   -9380.0445   -105.19406    310.46264 
   40740    0.9598804   -9379.2715    92.596681    305.82973 
   40750   0.96051489   -9379.2387    220.66289    301.78577 
   40760   0.96045137   -9379.6355    227.96814    299.06847 
   40770   0.95963347   -9380.2117    81.677757    294.96233 
   40780   0.95848964   -9380.0635   -121.19857    294.25034 
   40790   0.95768859   -9379.2811   -291.26362    298.55059 
   40800   0.95781183   -9378.1749   -318.44347    305.23344 
   40810   0.95895012   -9377.5654    2.0035296    300.44908 
   40820   0.96021771   -9377.8834    205.01947    299.07945 
   40830    0.9609106   -9378.3268     177.9575    302.46873 
   40840   0.96100356   -9378.5927    133.16032    301.33433 
   40850    0.9606624   -9379.2168    4.5928821    303.43513 
   40860   0.96023246   -9379.5027   -7.0696768    301.32004 
   40870   0.95984812   -9379.7421   -69.718162    298.75347 
   40880   0.95969942     -9380.03   -150.00868    304.50068 
   40890   0.95994538   -9380.3825    106.32135    296.05101 
   40900   0.95997321   -9381.3858     56.45406    295.48733 
   40910   0.95982026   -9381.9878    -120.5931    300.92974 
   40920   0.95997387   -9382.4489   -25.943425    298.90659 
   40930   0.96027519   -9383.0797    39.869746    294.00592 
   40940   0.96051103   -9383.8003   -16.971615    297.69256 
   40950   0.96076907   -9384.3358    49.586299    296.50576 
   40960   0.96088899   -9385.2903    63.359533    298.27828 
   40970   0.96075248   -9386.0689    158.91383    289.42117 
   40980   0.96019803   -9386.8197    -107.3786    294.08854 
   40990   0.95991004     -9386.56   -281.35516    301.52076 
   41000   0.96053407   -9386.3019    -250.2223    302.80455 
   41010   0.96202419   -9386.6432   -18.134155    301.48431 
   41020   0.96367439   -9387.5038    272.31984    295.26763 
   41030   0.96459669   -9389.0033    215.68994    303.12427 
   41040   0.96476033   -9390.2699     202.2757    301.58715 
   41050   0.96430745   -9391.6293    23.986924    298.72882 
   41060   0.96373463   -9392.6868   -151.48116    304.13893 
   41070   0.96359541   -9393.7375   -167.77866    310.41789 
   41080   0.96395216   -9395.3629    49.491191    307.50422 
   41090   0.96421192   -9397.7062    172.25622    298.90386 
   41100   0.96397453   -9400.3933    54.519405    300.63451 
   41110   0.96347294   -9403.0252    42.308612    301.05737 
   41120   0.96278935   -9405.9784     9.806474    302.13608 
   41130   0.96203116   -9409.1759   -39.640942    298.73017 
   41140   0.96137284   -9412.3123   -106.22596    300.13095 
   41150   0.96099166   -9415.5381   -23.117777    297.93884 
   41160   0.96069634   -9419.0195    9.1013599    296.07645 
   41170   0.96038633   -9422.7171    -82.95768     298.7353 
   41180   0.96029333   -9426.2429   -47.808507    297.33448 
   41190   0.96035993   -9430.1656    38.037537    296.24999 
   41200   0.96031083   -9434.2285    47.888815    298.18138 
   41210   0.96010487   -9438.3209   -32.522071      297.521 
   41220   0.95998449   -9442.4716   -88.794354    298.44319 
   41230   0.96012163   -9446.4093    1.4498792    297.39306 
   41240   0.96029142   -9450.7478    26.608422    299.65732 
   41250   0.96035228   -9455.1806    84.308125    298.04984 
   41260   0.96012234   -9459.4264    158.71174    288.67047 
   41270   0.95946551   -9463.5389   -90.324892    289.70166 
   41280   0.95901758   -9466.6483   -222.92677    292.13045 
   41290   0.95927426    -9469.319   -173.73374    293.82298 
   41300   0.96014536   -9472.2205   -76.389948    298.31389 
   41310   0.96134606   -9475.3053     26.38157    296.95664 
   41320   0.96254587   -9478.5337    120.99017    297.32618 
   41330   0.96339485   -9481.6644    232.74255    292.02801 
   41340   0.96360575    -9484.642    18.408672    297.59108 
   41350   0.96364468   -9486.9955    34.201091    294.41239 
   41360   0.96357894   -9489.3185    72.570357    289.02192 
   41370   0.96330256   -9491.4529   -50.324864    292.43247 
   41380   0.96314132   -9492.8711   -89.459403    290.80519 
   41390   0.96330465   -9493.9305   -117.30079    290.58624 
   41400   0.96386874   -9494.9001   -69.599452    296.09776 
   41410    0.9646475   -9496.0104    142.95404     293.7117 
   41420   0.96505746   -9497.3338    151.44318    292.49422 
   41430   0.96498469   -9498.3134     36.96243    294.16906 
   41440   0.96473237   -9498.8878    39.743055     291.9677 
   41450   0.96431901   -9499.4677    72.428314    291.48017 
   41460   0.96366493   -9499.6463   -39.638243    290.69071 
   41470   0.96312793   -9499.3663     -193.047    296.58152 
   41480   0.96309907    -9498.933    14.498397    295.16069 
   41490   0.96309532   -9498.9533     60.62264    298.50596 
   41500   0.96286296   -9499.1012     67.29025    295.92486 
   41510   0.96240176   -9498.9326     63.55372     286.0724 
   41520   0.96173753    -9498.423    -32.00545    285.30685 
   41530   0.96113749   -9497.5345   -142.25002     292.7914 
   41540   0.96091212   -9496.1904    -56.82844    292.10573 
   41550   0.96091407   -9494.9251   -7.6221575    287.70611 
   41560    0.9609997   -9493.4865   -114.10349    290.32295 
   41570   0.96148818   -9491.5844   -219.40021    296.62065 
   41580   0.96270238   -9489.6791   -110.78387     300.4286 
   41590   0.96434941     -9488.22    140.71201    297.94807 
   41600   0.96568412   -9487.2152    211.99898    298.32346 
   41610   0.96638942   -9486.0832    169.20972    296.34012 
   41620   0.96656832   -9485.0531    88.445477    294.90542 
   41630   0.96642205   -9483.7894    93.438196    290.11027 
   41640   0.96601048   -9482.2163   -64.632585    288.99368 
   41650     0.965773    -9480.029    -205.7191    300.14261 
   41660   0.96612939   -9477.7934   -63.607508    304.81813 
   41670   0.96673667   -9476.1589     108.5012    299.85111 
   41680   0.96706502   -9474.9712    155.38979    295.06944 
   41690   0.96692883   -9473.8769    38.771885    301.53987 
   41700   0.96655682    -9472.574    101.43018    300.57747 
   41710   0.96583021   -9471.7079    136.18863    296.43112 
   41720   0.96460463   -9471.0994    78.556212    291.16437 
   41730    0.9630904   -9469.9108   -161.11977    291.21953 
   41740   0.96198516   -9467.7794   -242.01349    292.45695 
   41750   0.96161505   -9465.6219   -133.89752    293.81645 
   41760   0.96166784   -9463.6424    29.207766    293.35042 
   41770   0.96163807   -9462.0163    121.78783    289.83378 
   41780   0.96126436   -9460.4939   -21.581365    296.14764 
   41790   0.96085592   -9458.4252      10.7287     294.9922 
   41800   0.96043765   -9456.4905   -11.914257    292.63043 
   41810   0.96001147   -9454.5427    5.8436094    291.21623 
   41820   0.95956541   -9452.5847   -32.896586    292.59101 
   41830   0.95919532   -9450.5209   -71.466506    295.49712 
   41840   0.95898531   -9448.4669    55.521578    293.49377 
   41850   0.95861301   -9446.7543    62.558567    292.17106 
   41860   0.95807259   -9444.9068    -159.9955    295.47954 
   41870    0.9580166   -9442.5573   -263.95868     302.0482 
   41880    0.9587363   -9440.6189    75.062624    294.33107 
   41890   0.95933947   -9439.6939    244.82415    288.49341 
   41900   0.95920377   -9438.7246    124.24264    289.46051 
   41910   0.95866391   -9437.1913    -127.1991    293.24869 
   41920   0.95843516    -9435.236   -142.81101    296.96754 
   41930    0.9586565   -9433.4876    16.237401     292.5856 
   41940   0.95889259   -9432.2288    56.920968    295.27921 
   41950   0.95894504   -9430.9044    56.048668    296.09852 
   41960   0.95884265   -9429.7529   -62.145465    299.73844 
   41970   0.95890971   -9428.3916    -77.42811    298.16126 
   41980   0.95922169   -9427.2518    21.263178    296.53706 
   41990   0.95948631   -9426.4291      103.734    295.64039 
   42000   0.95943821   -9425.7997    34.986805    298.94564 
   42010   0.95925223     -9425.02   -45.615759    300.11584 
   42020   0.95919257   -9424.2011   -43.892052    298.06647 
   42030   0.95929605   -9423.4211   -3.0610856    296.93527 
   42040   0.95941837   -9422.8917    44.606256    300.59426 
   42050   0.95937903   -9422.5026    101.05007    300.58124 
   42060   0.95897961   -9422.3166    111.64922    300.52029 
   42070   0.95816646   -9422.3795     57.09185    298.81529 
   42080   0.95714345    -9422.244   -114.18681    296.34661 
   42090   0.95644902   -9421.5486   -214.85393    296.19865 
   42100   0.95640121   -9420.6981   -99.655836    295.35801 
   42110   0.95670312   -9420.1015    8.9173207    293.67164 
   42120   0.95705717   -9419.6954   -71.633046      300.185 
   42130   0.95762801   -9419.0145   -15.505784    298.60629 
   42140   0.95833504   -9418.6278   -11.860841    298.60722 
   42150   0.95910383   -9418.0936    40.509846    298.25542 
   42160   0.95976052   -9418.0178    122.28971    300.70737 
   42170    0.9600407   -9417.9055    131.40725     297.8479 
   42180   0.95993965   -9417.8163   -64.107878    304.39926 
   42190   0.95992524   -9417.4661    64.932818     296.2267 
   42200    0.9598062    -9417.506   -48.772063    300.38225 
   42210   0.95981341   -9417.2152   -121.43505    303.60828 
   42220   0.96022214   -9416.8257   -70.376563    299.38646 
   42230   0.96092228   -9416.8116    -14.59642    301.24389 
   42240   0.96168759     -9417.18    97.497393    302.96546 
   42250   0.96220557   -9417.7327    117.63521    303.79013 
   42260   0.96233306   -9418.4529    157.95054    303.65578 
   42270   0.96193387   -9419.7398    127.98084    305.57604 
   42280    0.9610079   -9421.1111    178.89245    293.11338 
   42290   0.95954958   -9422.3629    -110.5105    290.69326 
   42300   0.95829625   -9422.7839   -243.84592     299.4987 
   42310   0.95769256   -9422.9677    1.8492378    290.61393 
   42320   0.95718807   -9423.5301   -61.817221    294.22072 
   42330   0.95680805   -9423.6311   -31.145504    289.44153 
   42340   0.95660332   -9423.6535   -145.08048    292.61614 
   42350    0.9567839     -9423.16   -31.030468    292.04431 
   42360   0.95717285   -9422.8938   -61.348266    291.29018 
   42370   0.95777156   -9422.3977   -63.503073    297.09964 
   42380   0.95856795   -9421.8861    135.83211     294.4667 
   42390   0.95900329   -9421.7086    181.98243    295.55227 
   42400   0.95883718    -9421.356    145.74729    292.97301 
   42410   0.95821359   -9420.7365   -73.497392    294.85481 
   42420   0.95776249   -9419.3246    -192.3628    295.64683 
   42430   0.95792242   -9417.7914   -174.96077    298.75653 
   42440   0.95865218   -9416.3631    6.1332294     299.1162 
   42450   0.95943404   -9415.1237     164.1469    296.44123 
   42460   0.95974214   -9414.3369    167.96724    295.90608 
   42470   0.95949328   -9413.0708    86.146998    292.95695 
   42480   0.95896542   -9411.5312    -117.6306    299.04581 
   42490   0.95873556   -9409.3285    -128.5608    297.67878 
   42500   0.95894621   -9407.0811   -77.404832    297.15696 
   42510   0.95940931   -9404.9065    60.143587    297.15462 
   42520   0.95977658   -9402.6896  -0.13425202    299.67625 
   42530   0.96014129    -9400.286   -44.155157    306.73038 
   42540   0.96061123   -9397.9248    112.29717    303.87295 
   42550   0.96077042   -9396.1819    175.44787    301.46242 
   42560   0.96038264   -9394.3008    75.222983    300.31385 
   42570   0.95971105   -9392.0724   -85.605518    303.26413 
   42580   0.95921487   -9389.5234   -67.162322     301.6342 
   42590    0.9589496   -9387.0318   -97.754785    299.46482 
   42600   0.95904479   -9384.3213    -176.8983    300.73002 
   42610   0.95972138   -9381.6114   -68.699411     302.6031 
   42620    0.9606631   -9379.3861    140.75308    301.86507 
   42630   0.96120913    -9377.398    245.66798    298.41218 
   42640   0.96097982    -9375.527    171.75655    297.16497 
   42650   0.96013814     -9373.37     25.79359    297.98228 
   42660   0.95915928   -9370.6398   -150.19703    301.50265 
   42670   0.95858751    -9367.348   -174.52134    302.01886 
   42680   0.95854854   -9364.1534   -58.468457    299.79493 
   42690   0.95873055   -9361.1414    40.490168    298.28892 
   42700   0.95882951   -9358.1203    36.345631    297.10914 
   42710   0.95881339   -9355.1976   -1.1201135    301.52439 
   42720   0.95875389   -9351.9909    41.060784    303.16125 
   42730   0.95855887   -9349.1043    28.016186    306.45261 
   42740   0.95823663   -9346.1347    60.541306    302.85834 
   42750   0.95771806   -9343.2553     29.17118     298.7009 
   42760   0.95713093   -9340.3304   -175.80706    305.86353 
   42770   0.95699354   -9337.0345   -56.346281    304.09383 
   42780   0.95706684   -9334.4036    106.52017     303.1152 
   42790    0.9567765   -9332.0365    187.94514    299.36634 
   42800   0.95589364   -9329.8931    17.083213    300.87403 
   42810   0.95485683   -9327.3432   -118.49514    303.69013 
   42820   0.95407559   -9324.5873   -8.9113924    299.95873 
   42830   0.95334287   -9322.1713   -12.248057    300.57802 
   42840    0.9526008   -9319.6809   -5.7072997     299.6001 
   42850   0.95182078   -9317.2867     73.54832    293.42585 
   42860   0.95079719   -9315.1336   -55.164161    299.33881 
   42870   0.94984855   -9312.2453   -145.79202    302.05893 
   42880   0.94935114   -9309.0719   -189.05594    303.26924 
   42890   0.94946354   -9306.1085   -113.63513    308.02362 
   42900   0.94991256    -9303.803    153.01873    304.72261 
   42910   0.94997855   -9302.1672    124.65752    299.27665 
   42920   0.94965797   -9300.1008   -100.69741    302.23915 
   42930   0.94959668   -9297.6299   -135.91741    304.58949 
   42940   0.94997364   -9295.4736   -57.944181    305.76243 
   42950   0.95060784   -9293.5681  -0.90836742    302.38668 
   42960   0.95133056    -9291.982    13.378213    299.09725 
   42970   0.95206066   -9290.5965    7.8493443    304.71495 
   42980   0.95277093   -9289.2496    73.941969    306.21488 
   42990   0.95329177   -9288.1428    86.619314    303.84558 
   43000   0.95356397    -9287.128    57.354981    304.54646 
   43010    0.9536197   -9286.3418    98.661885    304.27525 
   43020   0.95334576    -9285.797    62.263233    305.67138 
   43030   0.95285305   -9285.3206    -74.35069    306.11789 
   43040   0.95254179   -9284.5782    -67.34959    300.80438 
   43050   0.95245637   -9283.9953   -1.5422644    296.54759 
   43060   0.95243208   -9283.6646   -79.761568    302.32657 
   43070   0.95261432   -9283.1155   -7.5349814    302.57689 
   43080   0.95288818   -9282.9954   -11.637805    305.01661 
   43090   0.95315848   -9282.8354    106.97041    298.38489 
   43100    0.9531646   -9283.1808     54.40076     295.3277 
   43110   0.95296588   -9283.1486    21.123126    293.60423 
   43120   0.95269979   -9283.0501   -32.830391     297.0241 
   43130   0.95248499   -9282.7755   -26.090459    301.94802 
   43140   0.95233935   -9282.5943  -0.42035196    302.41878 
   43150    0.9521936   -9282.5741    -26.61799    303.69642 
   43160   0.95212993   -9282.5039   -90.051245    309.09669 
   43170   0.95229635    -9282.932    38.988604    309.84534 
   43180   0.95232697   -9283.9759     216.4049    301.71098 
   43190   0.95174531   -9285.6847   -12.849469    308.79329 
   43200   0.95107762   -9287.0419   -80.723611    307.78909 
   43210   0.95065105     -9288.84   -37.742523    303.37249 
   43220   0.95034861   -9291.2576   -27.198761    305.60978 
   43230   0.95010018    -9293.978    6.2535351    300.72351 
   43240   0.94987223   -9297.0535   -99.926153    299.95346 
   43250   0.94994774   -9300.2395   -150.63819    303.30544 
   43260   0.95052017   -9303.6932    -80.74747    303.54055 
   43270   0.95144375   -9307.8906    -30.83981    305.33586 
   43280   0.95251381   -9312.4881    79.107531    303.44274 
   43290    0.9534005   -9317.8347    127.82591    303.70771 
   43300   0.95389289   -9323.3774    163.41554      300.807 
   43310     0.953869    -9329.194    134.10453    297.81594 
   43320   0.95341257   -9334.8399    14.572038    295.97237 
   43330   0.95288362   -9340.1311   -151.63547    300.16126 
   43340   0.95276067   -9344.8794   -90.220334    299.80959 
   43350   0.95296909   -9349.8723   -25.328709    296.09992 
   43360   0.95334474   -9354.5427   -99.293122    295.75207 
   43370   0.95406221   -9359.1277   -97.408691    301.31592 
   43380   0.95508397   -9363.6053    136.43179    294.45455 
   43390    0.9558165   -9367.9476    94.146394    295.22956 
   43400   0.95627424   -9372.1523   -1.4508861    302.18472 
   43410   0.95669555   -9375.8447    108.75613    296.10162 
   43420   0.95686121   -9379.4673    7.8895865    294.52089 
   43430   0.95697523   -9382.5324   -60.387145    295.17826 
   43440   0.95725754   -9385.5072   -11.496668    299.76179 
   43450   0.95757683   -9388.6001    71.577324    300.56345 
   43460   0.95769538    -9391.502    56.331042    298.31443 
   43470   0.95768254   -9394.2435   -125.86027    300.49725 
   43480   0.95805589   -9396.6762   -173.59678    306.14738 
   43490   0.95897274   -9399.2765    65.168897    304.56488 
   43500   0.95979359     -9402.53    152.74838    306.77476 
   43510   0.96010645    -9406.026    259.94093    302.39041 
   43520   0.95961583   -9409.7109    180.72716    296.28912 
   43530   0.95848202   -9413.0153   -12.108484    295.64649 
   43540   0.95731257   -9415.5142   -210.62468    296.68416 
   43550   0.95674013   -9417.4952   -275.07826    301.95852 
   43560   0.95699983   -9419.6005   -42.649076    298.04529 
   43570   0.95751384   -9422.1156    32.281545    299.19855 
   43580   0.95793918   -9424.7244    87.400626     299.2942 
   43590   0.95808365   -9427.2208    173.08771    289.03389 
   43600   0.95774904   -9429.6258   -48.191788    294.08658 
   43610   0.95748131   -9431.1646   -146.97113    299.40063 
   43620   0.95767608   -9432.7094   -95.314725    299.28437 
   43630   0.95818288   -9434.5405    74.688708    298.40726 
   43640   0.95849266   -9436.6132    164.90879    295.06384 
   43650   0.95833644   -9438.7556   -34.395198    298.03135 
   43660   0.95821823   -9440.2628   -58.905255    296.84039 
   43670   0.95826457   -9441.8475    62.781491      294.776 
   43680   0.95813121   -9443.7332    83.265256    295.79067 
   43690   0.95770092   -9445.2356      69.9829    291.32817 
   43700    0.9570553   -9446.4891   -80.489439    293.63912 
   43710   0.95658438   -9447.2909   -107.14002    296.16404 
   43720   0.95642408   -9448.0123   -53.302697    294.50178 
   43730   0.95646619   -9448.7696   -55.295251     291.0698 
   43740   0.95671311   -9449.2312    -57.86493    290.19622 
   43750   0.95720186   -9449.4019   -76.362814      290.403 
   43760   0.95800971   -9449.3698   -108.73996    290.40122 
   43770   0.95922376   -9449.2704   -21.130628    291.26525 
   43780   0.96055922   -9449.2326    168.06677    288.59619 
   43790   0.96145967   -9449.2289    179.20196     289.9709 
   43800   0.96180983   -9448.8175    81.413474    289.95414 
   43810   0.96191701   -9447.9509   -52.017718    291.46667 
   43820   0.96215877   -9446.6967   -29.994868       293.61 
   43830   0.96249989   -9445.3606    61.600917    292.85216 
   43840   0.96269693   -9444.0444    7.3906287    296.04002 
   43850    0.9628365   -9442.5141    4.0147133    298.59097 
   43860   0.96295238   -9441.0086    83.728436    300.12996 
   43870    0.9627661   -9439.6467    198.58816     293.4636 
   43880   0.96198029   -9438.4002     33.28315    295.45794 
   43890   0.96094759   -9436.7585    15.359032    294.11086 
   43900   0.95981662   -9434.8629   -26.667361    293.24923 
   43910   0.95871814   -9432.5661   -117.64358    294.63254 
   43920   0.95794964   -9429.7998   -157.60369    293.88083 
   43930   0.95768114   -9426.7583   -170.09483    298.81854 
   43940   0.95791327   -9423.7379    38.523765    295.72536 
   43950   0.95809172   -9421.1654    137.37392    291.45214 
   43960   0.95784867   -9418.3936     72.38894    292.17097 
   43970   0.95735995   -9415.0788   -85.640643    298.01659 
   43980   0.95705619    -9411.437   -83.841243    299.35094 
   43990   0.95701851   -9407.7618   -25.843153    296.34064 
   44000   0.95708837   -9404.1038   -7.6605257    298.09378 
   44010   0.95716172   -9400.4575    78.168262    303.25106 
   44020   0.95697688   -9396.9534    142.20856    297.67204 
   44030   0.95638515   -9393.6127   -40.140847    301.44956 
   44040   0.95578709   -9389.9429     25.11333    297.82698 
   44050   0.95509328   -9386.6562    45.039136    295.70947 
   44060   0.95421576   -9383.3042   -28.810303    296.34266 
   44070   0.95338999   -9379.5144   -146.77451    297.07269 
   44080   0.95300269   -9375.5017   -216.71132    304.44488 
   44090   0.95327192   -9371.5166   -62.008654    299.62526 
   44100   0.95386548   -9368.1262   -35.034071    297.98182 
   44110   0.95460194   -9364.9412    35.372207    300.05072 
   44120    0.9552582   -9361.9361    117.66979    301.64361 
   44130   0.95556399   -9359.4038    115.76351    304.56911 
   44140   0.95546085   -9357.1043    138.62697    301.70743 
   44150   0.95491711   -9355.0788    56.792157    294.77908 
   44160   0.95419844   -9352.7833   -175.86568    297.25132 
   44170   0.95392656   -9350.1318   -78.262244    298.35782 
   44180   0.95389501   -9347.9391    99.655879    295.48684 
   44190    0.9536371   -9346.1331   -101.06777    305.05928 
   44200   0.95360552   -9343.6938   -97.585858    303.86099 
   44210   0.95393123   -9341.8546   -35.064719    301.19253 
   44220   0.95441859   -9340.3748  -0.64765903    301.94375 
   44230   0.95496658   -9339.0983   -8.1849602    304.64448 
   44240   0.95553525   -9338.2909    95.249893    304.67749 
   44250   0.95583735   -9337.8134    133.71501    301.89212 
   44260   0.95569018   -9337.6806     126.7803    301.51561 
   44270   0.95504139   -9337.6514    251.65596    290.53771 
   44280   0.95365177   -9337.8794   -71.312592    295.86189 
   44290   0.95232748   -9336.9712    -236.2666    302.24687 
   44300   0.95164218   -9336.0745   -61.375285    299.69766 
   44310   0.95115796   -9335.9227    78.632791    296.60637 
   44320   0.95042742   -9335.8467    63.343633    293.08843 
   44330   0.94945287   -9335.5851   -30.157749    292.09812 
   44340   0.94852369   -9334.9476   -140.23517    295.70064 
   44350   0.94797019    -9333.826   -111.06663    291.61296 
   44360   0.94785478   -9332.5934   -218.84679    293.05477 
   44370   0.94846458   -9331.2353   -233.63032    299.34246 
   44380   0.94983378   -9330.1437    72.447161    290.41982 
   44390   0.95117087   -9329.7454    95.090939    295.63617 
   44400   0.95218905   -9329.1585    162.05453    300.80818 
   44410   0.95269319   -9328.8043    220.70149    297.85043 
   44420   0.95252769   -9328.5215    69.789114     297.3328 
   44430   0.95212527   -9327.8004   -145.05027    296.97834 
   44440   0.95219863   -9326.6136   -303.24415    299.25148 
   44450   0.95325966     -9325.55   -199.25597    301.80643 
   44460   0.95506973   -9325.2599   0.18924636    306.04426 
   44470   0.95699371     -9325.48     180.3399    302.99948 
   44480   0.95848744   -9325.9201    136.86108    305.90356 
   44490   0.95953527   -9326.5112    182.29453    310.37118 
   44500   0.95996164   -9327.6321    360.00039    303.94638 
   44510   0.95928095   -9329.3156    186.04741    300.78524 
   44520   0.95792632   -9330.7362   -113.82594    304.10396 
   44530   0.95678491   -9331.3135   -144.91136    302.32141 
   44540   0.95614009   -9331.8753   -226.28956    303.69154 
   44550   0.95620539    -9332.433   -187.07787      306.036 
   44560   0.95687828   -9333.4457    26.185664    304.16577 
   44570   0.95756184   -9335.0142    80.973885    304.15399 
   44580   0.95803804   -9336.6731   0.76295766    307.90747 
   44590   0.95847621    -9338.524    81.860589    308.68124 
   44600   0.95865362   -9340.9083      210.361    303.57947 
   44610   0.95817229    -9343.606    142.65308    298.04553 
   44620   0.95723144   -9345.8098   -143.12899     304.0707 
   44630   0.95664285   -9347.4806   -215.42863    304.61339 
   44640   0.95672267   -9349.2474   -83.573172    299.98205 
   44650   0.95711621   -9351.4753    41.409977    298.68501 
   44660   0.95742823   -9353.8105    42.279214    302.96519 
   44670   0.95755931   -9356.0514    125.28509    301.13281 
   44680    0.9573233   -9358.5908    58.068982    300.96124 
   44690   0.95685457   -9360.9449   -22.850045     299.4273 
   44700   0.95646689   -9363.0003   -127.70026    298.87338 
   44710    0.9564726   -9364.6235   -129.54601    294.65338 
   44720   0.95696071    -9366.194   -161.39384      297.224 
   44730   0.95799673   -9367.7184   -71.325803      298.409 
   44740   0.95936237   -9369.5689    10.366865    301.89394 
   44750   0.96077564   -9371.7425    62.282074    308.92019 
   44760   0.96198886    -9374.061    264.15893    300.76952 
   44770   0.96250258   -9376.7516    106.78417    301.71444 
   44780   0.96260244   -9379.1044    46.099743    304.18402 
   44790   0.96249595   -9381.5833    134.30978    302.07359 
   44800   0.96196283   -9384.1854    97.050733    298.86555 
   44810   0.96110863   -9386.4372   -57.194407    297.63727 
   44820   0.96039018   -9388.4457   -166.28364    301.45042 
   44830    0.9601416    -9390.266   -81.372603    301.10023 
   44840   0.96018865   -9392.3821   -28.784881    302.13295 
   44850   0.96036435   -9394.4592    -48.22847    302.70402 
   44860   0.96070908   -9396.4207   -55.280381    305.92938 
   44870   0.96122849    -9398.815    41.242344    306.49736 
   44880   0.96161931   -9401.5162    155.72384    306.88245 
   44890   0.96148031   -9404.6865    267.08033    299.93846 
   44900   0.96050704   -9407.9375    104.03236    294.91304 
   44910   0.95916537    -9410.552   -211.96794    299.43312 
   44920   0.95835494   -9412.3363   -176.09481    298.11586 
   44930   0.95809666   -9414.2812    1.6408348    292.47626 
   44940    0.9578907   -9416.1945    -17.74107    292.19696 
   44950   0.95773305   -9417.6883   -106.27984    294.23777 
   44960   0.95790772   -9418.8299   -106.70418    296.98655 
   44970   0.95842274    -9419.918    25.417992    292.18297 
   44980   0.95897216   -9420.9567   -47.889576    289.48151 
   44990   0.95974106   -9421.5523   -191.49347    295.32502 
   45000   0.96112868   -9422.1246   -59.360359    298.19811 
   45010   0.96280971   -9423.0686    118.62215    301.20057 
   45020   0.96419116   -9424.0672    250.56049    297.62132 
   45030   0.96485617   -9425.5419      177.937    300.74509 
   45040   0.96488206   -9426.7024    218.94375    292.43312 
   45050   0.96425678   -9427.7704    39.572019    288.79325 
   45060   0.96342406   -9428.0945   -108.09395    291.66031 
   45070   0.96285179   -9427.8715   -102.27141    294.90917 
   45080   0.96257277   -9427.5315   -22.291795    293.81148 
   45090    0.9624079   -9427.2542   -38.383849    291.93951 
   45100   0.96236771   -9426.8079   -63.703498    297.15432 
   45110   0.96250921   -9426.4731   -2.1158629    299.21495 
   45120   0.96266336   -9426.2983    70.507943    298.49005 
   45130   0.96260142   -9426.1747    88.966035    295.63854 
   45140   0.96225949   -9426.1039   -6.0908687    299.45161 
   45150   0.96185825   -9425.6337    34.490915    293.94135 
   45160   0.96138829   -9425.2176   -78.397462    297.82011 
   45170   0.96107481   -9424.6672   -28.551428    299.43453 
   45180   0.96085009   -9424.2308    23.392326    295.73696 
   45190   0.96057359   -9423.9899   -2.2004304    295.83479 
   45200   0.96024915   -9423.5109    58.031428    291.16334 
   45210   0.95975508    -9423.125   -45.041505    293.08484 
   45220   0.95934889   -9422.1014   -99.201838    292.19046 
   45230   0.95928435   -9420.9373   -169.60273    296.22705 
   45240   0.95974653   -9419.7893   -49.844115    295.41238 
   45250   0.96045648    -9418.875     21.41857    294.22792 
   45260   0.96116365   -9417.8216     2.530101    297.99528 
   45270   0.96186035   -9416.7781    116.29648    293.15346 
   45280   0.96225382   -9416.0156    58.855861    298.56073 
   45290   0.96241341   -9414.9988    64.277924    300.61821 
   45300   0.96238778   -9413.8866     26.54544    296.73654 
   45310   0.96229652   -9412.9441   -70.531928     301.6105 
   45320     0.962357   -9411.7186    33.289008    304.25484 
   45330    0.9623398   -9411.2448     93.06903    302.49887 
   45340   0.96201236   -9410.7152    113.93953    294.97293 
   45350   0.96134469   -9410.3226   -88.379934    300.17875 
   45360   0.96083287    -9409.433   -51.257583    297.31456 
   45370   0.96051561   -9408.7205   -60.697525    295.85808 
   45380   0.96036603   -9407.9313   -23.225727    298.69021 
   45390   0.96027393   -9407.3222     59.64133    292.72471 
   45400   0.96006967   -9406.4552   -112.18062    293.99673 
   45410   0.96019357   -9405.1037   -157.58037    294.67637 
   45420   0.96083545   -9403.7556   -64.393362    296.20628 
   45430   0.96177928    -9402.676   -39.913704    298.42697 
   45440   0.96290481   -9401.5286    23.507064    296.49682 
   45450   0.96406005   -9400.7079    15.977877    300.25169 
   45460   0.96516724   -9399.9051    124.90388    301.78106 
   45470   0.96590394    -9399.313    244.73144    297.81013 
   45480   0.96591017   -9398.8643    107.27754    303.22869 
   45490   0.96551827   -9398.1493   -46.391011    307.14868 
   45500   0.96522671   -9397.3628   -109.20766    308.11362 
   45510   0.96527314   -9396.9066   -81.839679    311.85838 
   45520   0.96555515   -9396.8816    91.014257    304.35891 
   45530   0.96562252   -9397.3792    79.761076    301.53654 
   45540     0.965435   -9397.9629    4.3642279    301.09556 
   45550    0.9652395   -9398.2915   -114.64966    300.72707 
   45560   0.96542171   -9398.4913   -182.60152    306.78565 
   45570    0.9661537   -9399.1733    38.445069    306.67938 
   45580   0.96682789   -9400.9514    249.71443    305.27166 
   45590   0.96673389   -9403.3495    258.84915    302.63766 
   45600   0.96579212   -9405.9607    44.825747    299.97202 
   45610   0.96460733   -9408.6257   -140.20544    305.33275 
   45620   0.96370017   -9411.3052   -2.1191676     298.8658 
   45630   0.96282951   -9414.9319   -61.572187    300.11799 
   45640   0.96208332   -9418.6994    -92.41037    298.73293 
   45650   0.96163591   -9423.0669   -130.05772    298.54012 
   45660   0.96157833   -9428.1413   -61.829787    300.91171 
   45670   0.96168439   -9434.2211    143.53095    296.48354 
   45680   0.96136781   -9441.1222    144.52475    292.22238 
   45690   0.96058881   -9448.1873   -94.364968    291.93688 
   45700   0.96005075    -9454.927   -250.19363    293.05879 
   45710   0.96032287   -9461.6496   -261.93554    299.23935 
   45720   0.96145675   -9468.7269   -55.383182    298.32178 
   45730   0.96289288   -9476.3757    153.26518    295.46038 
   45740   0.96388309   -9483.8297    344.87661    289.68723 
   45750   0.96385412    -9490.796    166.22255    288.24552 
   45760   0.96322931   -9496.4716   -50.119539    288.31955 
   45770   0.96271773   -9501.0456    -137.0426    288.04694 
   45780   0.96258826   -9505.0248   -23.033622    283.40252 
   45790   0.96262596   -9508.1984   -112.47088      286.513 
   45800   0.96301314   -9510.7509    -124.5909    292.34251 
   45810   0.96377665   -9512.9772    108.32939    287.97273 
   45820   0.96429458   -9515.5396    95.751895    293.37457 
   45830   0.96445382   -9517.3518    107.89333    289.28613 
   45840   0.96435599   -9518.8842   -117.03227    293.65754 
   45850   0.96457134   -9519.6318   -111.67067    293.07706 
   45860   0.96521365   -9520.3445   -46.769069    292.26347 
   45870   0.96603717   -9521.1214    22.961159    297.71913 
   45880   0.96677846   -9522.0386    216.41845    295.18775 
   45890   0.96686074   -9523.2953    289.86871     287.5362 
   45900   0.96604751   -9524.4416    2.0375549    297.39171 
   45910   0.96501343   -9524.6691    32.674805    293.53831 
   45920   0.96391916   -9524.8653   -157.69032    293.49901 
   45930    0.9632647   -9524.1995    -260.1571    296.82968 
   45940   0.96341854   -9523.4382   -104.71776    291.31191 
   45950   0.96401599   -9523.1233   -117.70427     298.8376 
   45960    0.9649936    -9522.697    10.433085    298.72824 
   45970   0.96604157   -9522.7682    113.42703    298.55181 
   45980   0.96674314   -9522.8875    234.68993    292.23731 
   45990    0.9667695   -9523.0152    90.067079    293.43727 
   46000   0.96644385   -9522.6224   -52.194549    299.24923 
   46010   0.96621794   -9521.9227   -34.373109    296.85525 
   46020   0.96612433   -9521.3098   -55.269449     298.8818 
   46030   0.96616812   -9520.6939    59.867407    294.13623 
   46040   0.96608656   -9520.2701    26.695958    294.57745 
   46050   0.96588486   -9519.7413   -5.6413031    296.43805 
   46060   0.96566821   -9518.9216    28.121684    291.49063 
   46070   0.96537062   -9518.0449   -30.647066    294.29845 
   46080   0.96513143   -9516.9799   -45.321977    296.77801 
   46090   0.96501859   -9515.7255   -1.4790178    290.32545 
   46100   0.96497844   -9514.2333   -97.614545    286.14511 
   46110   0.96526959   -9512.1754   -127.45054    289.73209 
   46120   0.96594903   -9510.1255    90.332259    294.48824 
   46130   0.96635597   -9508.2934    323.57811    283.89418 
   46140   0.96586978   -9506.3624   -7.9368684    285.77682 
   46150   0.96529857   -9503.1322   -239.99341    292.96701 
   46160   0.96542443   -9499.2194   -142.81292     294.5947 
   46170   0.96606045   -9495.6572   -18.131358    301.34852 
   46180   0.96675134   -9492.3671     203.1965    296.22769 
   46190   0.96687793   -9489.4284    161.70185    296.12854 
   46200   0.96644481   -9486.1942    43.857951    298.51001 
   46210   0.96580675   -9482.8241   -21.256742    297.87546 
   46220   0.96518412   -9479.3055    11.736529     292.7422 
   46230   0.96451113   -9475.6638    6.5120303    285.95775 
   46240   0.96383931   -9471.7717   -175.65165    293.50031 
   46250   0.96362265   -9467.3964   -96.765554    292.93386 
   46260   0.96377308   -9463.2769   -53.392473    293.02253 
   46270   0.96411231   -9459.0859    1.2103552    292.04902 
   46280   0.96450952   -9455.0835   -11.231544    295.68757 
   46290   0.96493024   -9450.9582    53.176097    299.71747 
   46300   0.96519738   -9447.1673    91.280801    301.27339 
   46310   0.96516803   -9443.7622    94.026364    302.08553 
   46320    0.9647943   -9440.8212    145.69035    297.11344 
   46330    0.9639243   -9438.3125    110.06988    288.73869 
   46340   0.96269106    -9435.703   -155.67668    296.30256 
   46350   0.96179601   -9432.1761   -147.88078    294.70855 
   46360   0.96139336   -9429.0053   -110.99036    294.29244 
   46370   0.96134908   -9426.0868   -59.843153    298.37856 
   46380     0.961501   -9423.4601      25.5638    303.40592 
   46390   0.96151673   -9421.3356    222.05609    298.16258 
   46400    0.9608741   -9419.8953    102.33269    293.50425 
   46410   0.95989612   -9417.9422   -225.62185     299.3049 
   46420   0.95952474   -9415.3267   -234.00076    300.97242 
   46430   0.95990566   -9413.3201   -46.486543    300.04256 
   46440   0.96051282   -9411.8614    55.707523    295.71231 
   46450   0.96104709   -9410.6901   -42.644054    300.93812 
   46460   0.96163988   -9409.3421    163.47563    297.61803 
   46470   0.96176083   -9408.6994    250.12262    288.26727 
   46480    0.9611002   -9408.0106    50.532966    288.71318 
   46490   0.96018456   -9406.4736   -114.03412    290.63173 
   46500   0.95962052   -9404.3652   -272.31735     300.1152 
   46510   0.95984597   -9402.1135   -105.17746    302.74291 
   46520   0.96044526   -9400.5268    181.93298    292.49667 
   46530   0.96059762    -9399.721    94.197393     292.8315 
   46540   0.96041491   -9398.2272   -37.295325    294.36933 
   46550   0.96033987   -9396.4608   -92.031298     293.8161 
   46560   0.96058965    -9394.589   -120.88067    297.22969 
   46570   0.96121446   -9392.7828    7.5544326    300.54559 
   46580   0.96185988   -9391.4197    114.11047    304.47616 
   46590   0.96214528   -9390.5662    181.59213    303.18096 
   46600    0.9618477   -9390.0138    133.16287    302.18855 
   46610   0.96106885   -9389.5655    33.851487    299.64054 
   46620   0.96013532   -9388.8363   -79.104126    294.53832 
   46630   0.95947006   -9387.5755   -270.92196    298.87142 
   46640   0.95958724   -9386.0848   -178.28002    302.26187 
   46650   0.96032934   -9385.3305   -9.7270271    305.88845 
   46660   0.96115781   -9385.0327    103.93304    308.32353 
   46670   0.96166848   -9385.1692    237.51928    303.20433 
   46680   0.96141389   -9385.8896    297.65568    294.79817 
   46690   0.96020189   -9386.7628    40.515037     294.9105 
   46700   0.95877112   -9386.5822    -299.0371    300.68234 
   46710   0.95820394   -9385.6225    -366.0535    305.89911 
   46720   0.95878255   -9385.1802   -87.105907    305.24545 
   46730   0.95972784   -9385.6392    176.53285    300.47401 
   46740   0.96023843   -9386.5198    122.11873    300.43196 
   46750   0.96035438    -9387.245    18.755897    304.03657 
   46760   0.96035656   -9388.1056    80.237002    305.74792 
   46770   0.96007092   -9389.2451     156.5491     298.6657 
   46780   0.95929827   -9390.6381    2.8737714    299.16557 
   46790   0.95840602   -9391.6476   -32.589622     295.8577 
   46800   0.95761971   -9392.4541    -142.6473    296.63441 
   46810   0.95727392   -9392.8677   -202.43667    296.18206 
   46820   0.95759757      -9393.4   -176.70825    303.15644 
   46830   0.95845199   -9394.3609    137.09826    301.16702 
   46840   0.95895142   -9396.1979    303.14695    295.57422 
   46850   0.95851693    -9398.135    109.53132    296.49907 
   46860   0.95765474   -9399.4268   -113.39828     299.7271 
   46870   0.95704936   -9400.3171   -95.145467    296.27117 
   46880   0.95679582   -9401.2467   -181.83468    299.54357 
   46890   0.95712269   -9402.2023   -166.59932     302.3771 
   46900   0.95801289    -9403.516     28.02442    300.34307 
   46910    0.9588936   -9405.5858    207.43972    296.89985 
   46920   0.95913996   -9407.9061    248.48929     292.4946 
   46930   0.95860214   -9410.0987    9.3843699    295.34936 
   46940   0.95794861    -9411.716   -143.64358    299.22894 
   46950   0.95766301    -9413.063    13.513491    290.73382 
   46960   0.95741169   -9414.9553    -19.08439    293.71615 
   46970   0.95713346    -9416.613    80.320784    290.99169 
   46980   0.95663371   -9418.5721   -20.220371    291.91191 
   46990   0.95618827   -9419.9931   -225.06597      296.009 
   47000   0.95645975   -9421.1987   -265.07723    301.08548 
   47010   0.95758013   -9422.8082   -8.3172805    298.75859 
   47020   0.95885082   -9425.2063    195.08641    295.94758 
   47030   0.95956924   -9428.0438    227.06138    296.98667 
   47040   0.95956955   -9430.8794    119.72406       297.23 
   47050   0.95913524   -9433.6073    15.706947    294.98967 
   47060   0.95863276   -9436.4691   -125.33889    297.09146 
   47070   0.95850557   -9439.1045    -148.4811     293.4874 
   47080   0.95889988   -9442.0352   -142.01847    297.33744 
   47090   0.95974702   -9445.3106    40.372936    294.87612 
   47100   0.96058788   -9449.0081     44.59353    294.54806 
   47110   0.96132366   -9452.9422     3.278591    299.07781 
   47120   0.96202529   -9457.1406    162.75459    292.44334 
   47130   0.96229554   -9461.5208    120.83417    285.83496 
   47140   0.96225041   -9465.4392   -168.42001    291.92123 
   47150   0.96269366   -9468.9856   -217.52931    299.46847 
   47160   0.96381248   -9473.0995    88.035559    296.33004 
   47170   0.96475395   -9477.7603    247.35929    293.52741 
   47180    0.9649564   -9482.5637    128.40582    298.01972 
   47190   0.96468084   -9487.1763    66.003038    294.24755 
   47200   0.96420566   -9491.4552   -38.019629    290.07894 
   47210   0.96385661   -9495.2899   -191.90004    294.15844 
   47220   0.96405673   -9498.7215   -110.83555    294.40667 
   47230   0.96468525    -9502.292     -18.6166    293.84561 
   47240   0.96543089   -9505.8749    39.449445    291.05871 
   47250   0.96614806   -9509.3241    -44.31131    295.93151 
   47260   0.96696962   -9512.7037    77.172819    294.28941 
   47270   0.96761186   -9516.0339    143.76776    288.88753 
   47280   0.96786329   -9519.1185   -1.9709508    293.81217 
   47290   0.96806538   -9521.6124     1.802076    294.21484 
   47300   0.96828854   -9523.9653     34.44261    291.20128 
   47310   0.96843407   -9526.1378    -2.408068    291.71152 
   47320    0.9685938   -9527.9895   -38.275431    290.98916 
   47330   0.96888941   -9529.4871   -58.446646    291.56656 
   47340   0.96936972   -9530.7278    68.808227    284.81988 
   47350   0.96972969   -9531.9218   0.76678064    286.65407 
   47360   0.97011038   -9532.5091   -119.54902    294.42669 
   47370   0.97083917   -9532.8449    10.886037    293.71391 
   47380   0.97160533   -9533.5848    84.717611     297.8554 
   47390   0.97208078   -9534.3187    200.23133    299.95345 
   47400   0.97190321   -9535.2371    285.29222    289.47932 
   47410   0.97086564     -9536.17   -29.460106    290.85123 
   47420   0.96980714   -9535.8823   -223.10848    293.97821 
   47430   0.96939109   -9535.1592   -154.87507    293.56461 
   47440   0.96948065   -9534.7601   -9.2477218    295.75836 
   47450   0.96958606   -9534.5847    157.11985    292.69418 
   47460   0.96922528   -9534.6325    70.440063    293.69079 
   47470   0.96854737   -9534.2846     32.40044     287.8557 
   47480    0.9677659   -9533.3886    -58.58148    283.11968 
   47490   0.96714813   -9531.7516   -148.90551    284.94082 
   47500   0.96698007   -9529.6753   -129.20863    289.91586 
   47510   0.96717812   -9527.6183    85.799693    286.15237 
   47520   0.96715842   -9525.8236    124.26273    289.65014 
   47530   0.96668593   -9523.5526    141.42294    285.66633 
   47540    0.9657892    -9520.855   -58.765263    282.51456 
   47550   0.96502041   -9517.1284    -233.7597    291.60776 
   47560   0.96489875   -9512.5632   -94.466884    292.27522 
   47570   0.96513875   -9508.3915   -22.616867    294.56399 
   47580   0.96545962    -9504.189    60.440701    294.27561 
   47590   0.96563086   -9500.0224    56.212712    294.04256 
   47600   0.96561853   -9495.7941    39.902977    292.92988 
   47610    0.9654655   -9491.5064    28.348438    290.26456 
   47620   0.96521373   -9487.0648   -20.011285    292.07474 
   47630   0.96500215   -9482.5273   -32.227821    293.48223 
   47640   0.96483749   -9477.9723    61.401072    291.36879 
   47650   0.96452224    -9473.679   -42.087003    295.24046 
   47660   0.96430093    -9469.061   -118.45899    300.04816 
   47670   0.96441601   -9465.0991    45.820521    297.58959 
   47680   0.96440978   -9461.6711    174.03754    292.41718 
   47690   0.96388135   -9458.8161    47.452481    292.11895 
   47700   0.96314397   -9455.7516   -114.42572    296.47107 
   47710   0.96270168     -9452.61     -110.206    293.62146 
   47720    0.9626654   -9449.6274   -194.90503    301.11474 
   47730   0.96320404   -9446.8528   -22.279849    301.72181 
   47740   0.96388396   -9444.9778    184.97462    294.84706 
   47750   0.96407927   -9443.8151    63.994413    301.28348 
   47760   0.96398702   -9442.4556    43.056938    302.15692 
   47770   0.96373683   -9441.3855    59.975147    298.36088 
   47780   0.96329766   -9440.4388    6.2664871    295.21338 
   47790   0.96283177   -9439.3986   -97.397008    298.90995 
   47800   0.96260847   -9438.2187   -52.843149    302.69004 
   47810   0.96253528   -9437.5172     47.38765    299.00343 
   47820   0.96230511   -9437.2537    119.73905    296.01823 
   47830   0.96166611   -9437.0981    108.04957    293.75799 
   47840    0.9606568   -9436.6489   -79.804626    294.23125 
   47850   0.95984029   -9435.6023   -235.82552     298.6343 
   47860   0.95972659   -9434.2428   -183.21078    299.16088 
   47870   0.96026724   -9433.2007   -82.114068    300.53254 
   47880   0.96109365   -9432.5657    136.36819    297.90202 
   47890   0.96154446   -9432.4553    228.90672    298.37257 
   47900   0.96120358   -9432.7137    278.33533    297.58988 
   47910   0.95989117   -9433.2979    207.04021    293.41188 
   47920   0.95784656   -9433.6369   -85.288159    295.42481 
   47930   0.95592957   -9432.7734   -267.53815    296.39001 
   47940   0.95479601    -9431.413   -280.89493    298.27687 
   47950   0.95453738    -9429.987   -125.12648    294.62819 
   47960   0.95474898   -9429.0523    -48.90686    295.61838 
   47970   0.95512345   -9428.1957    29.497567    297.58391 
   47980   0.95541752   -9427.5484     84.33145    296.67976 
   47990   0.95548395   -9426.8119    21.477059    292.84686 
   48000   0.95551578    -9425.697   -126.32836    298.11819 
   48010   0.95592974   -9424.4596   -83.555277    300.64616 
   48020   0.95665145   -9423.2999      25.0183    303.31368 
   48030   0.95731695   -9422.5444    144.17003    298.49159 
   48040   0.95760468   -9422.1453    34.348272    300.26114 
   48050   0.95773798   -9421.3312   -1.1570317    299.79088 
   48060   0.95789566   -9420.4436   -37.990596    297.56664 
   48070   0.95820661   -9419.5282     -76.5036    298.12687 
   48080   0.95878389   -9418.6353   -4.2191089    298.19116 
   48090   0.95939336    -9417.758    144.54573    293.72142 
   48100   0.95963873   -9417.2775    49.623464    297.60595 
   48110   0.95968752   -9416.2418    -5.758285     297.3787 
   48120    0.9597526   -9415.1505   -13.000435    295.92072 
   48130   0.95986386   -9414.0493   -21.237476    296.31553 
   48140   0.96008047   -9412.8015   -81.203506    300.49123 
   48150   0.96053918   -9411.4156    9.6606939    301.04584 
   48160   0.96101125   -9410.5302    105.30757    299.51252 
   48170   0.96117387   -9409.6177    101.76471     298.8914 
   48180   0.96099788   -9408.8569    78.478496    299.26795 
   48190   0.96050093    -9407.996    105.09077    296.18213 
   48200   0.95965672   -9407.3391    14.233042    299.07878 
   48210   0.95866156   -9406.1492   -15.250524    294.05548 
   48220   0.95775049   -9404.8444   -244.19245     299.6676 
   48230   0.95750304   -9402.8163   -163.54876    301.56718 
   48240   0.95778643   -9401.2056    61.451993    294.72377 
   48250   0.95795604   -9400.0765    52.931032    296.31013 
   48260   0.95794248   -9398.5543     33.17249    295.46978 
   48270   0.95783038   -9396.8958   -19.984635    295.23779 
   48280   0.95779429   -9394.9857   -97.457147    296.10408 
   48290    0.9580577   -9392.8148   -56.194183    295.70031 
   48300   0.95852201   -9390.7058    11.679303    295.68972 
   48310   0.95901356   -9388.4721    17.399142    292.88977 
   48320   0.95951549   -9385.9879   -48.592492    297.11174 
   48330   0.96014908   -9383.1851    47.695399    299.75825 
   48340   0.96066522    -9380.515    98.682292    298.64758 
   48350   0.96091396   -9377.8455      -27.746    302.92127 
   48360   0.96121963   -9374.7153    -47.27006    304.47029 
   48370   0.96171915   -9371.7744   -6.5917619    302.23566 
   48380   0.96230162   -9368.8846   -24.874718    307.97119 
   48390   0.96294497   -9366.2995    110.28241    310.00866 
   48400   0.96325031   -9364.3888    255.46551    306.15946 
   48410   0.96272524   -9362.9227    244.21181    300.98886 
   48420    0.9613629   -9361.6386    58.760463    297.76034 
   48430    0.9597102   -9359.7195   -133.67753    297.13474 
   48440   0.95839701   -9357.3375   -200.17896    299.62579 
   48450   0.95765799   -9354.6031   -113.84028    301.81259 
   48460   0.95727873   -9352.1305   -16.916382    302.05383 
   48470   0.95694366   -9349.7806    43.682376    302.89639 
   48480   0.95643775   -9347.6522    64.838509    300.68045 
   48490   0.95572439   -9345.5235   -83.053114    303.78116 
   48500   0.95520537   -9342.9768   -86.786143    299.44346 
   48510   0.95500586   -9340.4133   -129.56436    300.59532 
   48520   0.95520262    -9337.876   -76.618002    304.30578 
   48530   0.95566974   -9335.5751     13.20516    305.33761 
   48540   0.95613682   -9333.7197    53.547456    303.94431 
   48550    0.9564673   -9331.9664    63.237474    302.92159 
   48560   0.95660141    -9330.139    60.037534    300.97588 
   48570   0.95656674   -9328.5574   -23.651687    303.81668 
   48580   0.95654715    -9326.782    72.122701    301.46126 
   48590    0.9562858   -9325.2741    202.85227    290.56944 
   48600   0.95543371   -9323.9624   -42.671499    295.16507 
   48610   0.95458562   -9321.4508   -170.26536    301.14258 
   48620   0.95419615   -9318.6978   -65.317427    299.85006 
   48630   0.95403485   -9316.0273    6.2966662    298.93501 
   48640   0.95386918   -9313.4705    9.7923175    302.13689 
   48650   0.95364568   -9310.8536    45.750751    298.31707 
   48660   0.95334474   -9308.0519   -151.77641    300.39628 
   48670   0.95350161   -9304.7608   -240.83705    309.04638 
   48680   0.95435374   -9301.6238    103.67083    302.79701 
   48690   0.95502778   -9299.4448    188.10966    301.75967 
   48700    0.9551098    -9297.076    117.36356    301.33341 
   48710   0.95482527   -9294.5013   -35.036745    306.08765 
   48720   0.95452901   -9291.6527    93.334972    302.65513 
   48730   0.95398146   -9289.2428    68.072656    298.55175 
   48740   0.95320032   -9286.6333   -127.98109    304.15882 
   48750   0.95276086    -9283.391   -214.70444     309.6109 
   48760   0.95300535   -9280.2879   -199.63347    316.36926 
   48770   0.95387298   -9277.7354    88.558973    309.52392 
   48780   0.95460807   -9276.1705    162.47123    308.37795 
   48790   0.95479828   -9274.7848    204.55185    307.59833 
   48800   0.95433883    -9273.697    127.89068    301.27522 
   48810   0.95342337   -9272.4624   -8.3100225    298.27243 
   48820   0.95249794   -9270.7353   -171.93938    302.20433 
   48830   0.95206238   -9268.7556   -242.53323    311.27008 
   48840   0.95236302   -9266.9696   -90.694857    309.71037 
   48850   0.95301726   -9265.9244    79.408203     307.8177 
   48860   0.95347036   -9265.4619    175.81924    304.17671 
   48870    0.9533983   -9265.4378    122.42974    302.13325 
   48880   0.95290773   -9265.1671  0.042116127    301.94295 
   48890   0.95235786   -9264.6245    -83.95447    301.52772 
   48900   0.95209171   -9264.0253   -212.81716    309.45276 
   48910   0.95243891   -9263.4933   -26.024225     307.2226 
   48920   0.95294397   -9263.8172    142.71885    301.49396 
   48930   0.95304902    -9264.481    113.30551    303.83939 
   48940   0.95274541   -9265.3316    67.899883    307.82813 
   48950   0.95214408   -9266.5702    105.41571    303.71064 
   48960   0.95120558   -9268.1224     -5.79416    301.20047 
   48970   0.95023593   -9269.4474   -187.98521    306.16419 
   48980   0.94980112   -9270.6401   -211.39223    306.03473 
   48990   0.95007689   -9272.2854   -178.14642    307.57267 
   49000   0.95098491   -9274.6066   -97.852656    309.02044 
   49010   0.95227566   -9277.8169    36.155023    311.36336 
   49020     0.953506   -9282.0148    215.08853    308.08277 
   49030   0.95412452   -9286.7783    236.54223    304.42992 
   49040   0.95399569   -9291.8869    121.87626    299.96216 
   49050   0.95348181   -9297.1091   -145.28438    306.03902 
   49060   0.95331689   -9302.1207   -124.67049      305.071 
   49070   0.95362077   -9307.5051   -126.34083    309.78041 
   49080   0.95428926   -9313.3636    95.552491    307.46344 
   49090   0.95472879   -9319.7635    188.02278    300.37852 
   49100   0.95463289   -9326.3141   -45.702744    307.17947 
   49110   0.95459473   -9332.2157   -43.737583    302.78743 
   49120   0.95472722   -9338.2052     6.989112     297.9455 
   49130   0.95484199   -9343.7249    65.802387    296.21233 
   49140   0.95476892   -9349.0736    30.043354    297.93845 
   49150   0.95458055   -9353.8168   -50.558001      298.865 
   49160   0.95456056   -9357.9187   -127.63501    300.35876 
   49170   0.95492135   -9361.7633    6.4564017    295.18618 
   49180   0.95532242   -9365.5548    122.05409    289.25784 
   49190   0.95539618   -9368.9786   -1.7749953    294.80197 
   49200   0.95543272   -9371.5118    -86.42237    298.23785 
   49210   0.95576246   -9373.7109   -121.20206    302.37373 
   49220   0.95649136   -9376.2427    -15.62049      307.733 
   49230   0.95727327   -9379.1633     205.9711    304.51361 
   49240   0.95749146   -9382.3428    154.44128    300.24686 
   49250   0.95724063   -9385.1465   -88.265249    302.55993 
   49260    0.9572144   -9387.4429     -156.298    304.64488 
   49270   0.95770546   -9389.8606   -76.614236      305.851 
   49280   0.95847162   -9392.6246    75.271283    303.28768 
   49290   0.95905975   -9395.6601    123.98963    300.31281 
   49300   0.95928348    -9398.702    61.513764    303.32991 
   49310   0.95927022   -9401.5879     77.36829    301.43484 
   49320   0.95904332   -9404.4882   -6.2908702    299.85762 
   49330   0.95879583    -9407.109   -33.524854    301.45407 
   49340   0.95861254   -9409.6959    52.461808    295.93838 
   49350    0.9582846   -9412.5226    10.692077    296.58173 
   49360   0.95785844   -9414.8109    47.470374    288.91705 
   49370   0.95734025   -9416.8543   -147.09678    291.50544 
   49380   0.95726305   -9418.3084   -289.30806    299.85868 
   49390   0.95809656   -9419.4755   -140.67815    297.40174 
   49400   0.95951067   -9421.1809   -1.5508783    297.68439 
   49410   0.96103916   -9423.2884    64.511504     303.0029 
   49420   0.96238622   -9425.6849     209.3521    305.15636 
   49430   0.96310798   -9428.2568     270.2124    298.90086 
   49440   0.96302497    -9430.797    42.875438    300.27136 
   49450   0.96270072   -9432.9966    -4.981423    300.35303 
   49460    0.9623882   -9435.1912   -40.603666    302.15685 
   49470    0.9621551   -9437.4053    9.2976408     299.9299 
   49480    0.9618836   -9439.5098    79.666545    292.45857 
   49490   0.96139072   -9441.9466   -77.009042    300.86865 
   49500   0.96105607   -9443.7883   -91.690149    297.83676 
   49510   0.96105885   -9445.7166   -112.01742    296.47423 
   49520   0.96141217   -9447.6276   -11.501791    295.58443 
   49530   0.96185627   -9449.6817    67.999451    298.51833 
   49540   0.96203461   -9452.0891    257.91484    292.73386 
   49550   0.96145242   -9454.5415    130.43725    291.10154 
   49560   0.96036851   -9456.4605   -50.074383    289.14796 
   49570   0.95939174   -9457.5107   -211.00431    290.01969 
   49580   0.95907779   -9457.8826   -334.95419    295.12896 
   49590   0.95981241   -9458.2825   -177.71493    299.91818 
   49600   0.96119436   -9459.3897    159.39722    294.44195 
   49610   0.96219446   -9460.8852    278.27824    290.46892 
   49620   0.96238124   -9462.1566    107.88728    290.58706 
   49630   0.96217278   -9462.6665    -56.63789    290.32616 
   49640   0.96213016   -9462.6217   -168.78827     294.6963 
   49650   0.96259959   -9462.4253   -91.463761    295.15074 
   49660   0.96346219   -9462.4684    -50.08867    299.44895 
   49670   0.96449528   -9462.5462    133.52297    296.95135 
   49680   0.96523114   -9462.9931    121.34048    295.89291 
   49690    0.9656012   -9463.3513    29.230447    299.76178 
   49700   0.96582891   -9463.6469     57.77478    300.08794 
   49710   0.96589155   -9464.0206    43.322906    298.11523 
   49720    0.9658595   -9464.1975   -95.335025    303.15689 
   49730   0.96608291   -9464.3889   -54.831281    307.50697 
   49740   0.96645761   -9464.8938    220.59018    293.19717 
   49750   0.96623719   -9466.0853    135.44485    291.82504 
   49760   0.96554693   -9466.7479   -71.258052    295.33171 
   49770   0.96498525   -9466.9055   -118.06566    293.70041 
   49780   0.96479255   -9466.9052   -115.59778    292.86652 
   49790   0.96499192   -9466.6911   -88.021634    295.45845 
   49800   0.96548356    -9466.611    46.249621    293.27889 
   49810   0.96590614   -9466.6673    66.280183    294.52111 
   49820   0.96612257   -9466.5049    41.011813    296.21203 
   49830   0.96622803   -9466.2884   -57.696617    299.22397 
   49840    0.9664864   -9465.8059   -54.553421      303.026 
   49850    0.9669286   -9465.6623    51.947319    301.18759 
   49860   0.96725465   -9465.7933    100.39739    298.67532 
   49870   0.96726106   -9465.9753    122.50392     296.6719 
   49880   0.96680661   -9466.1987    180.09454    291.93804 
   49890   0.96579249   -9466.3694   -53.548091    295.45711 
   49900   0.96487819   -9465.6304    -252.6611    297.99135 
   49910   0.96471931   -9464.4199   -172.36948    298.03598 
   49920   0.96511221    -9463.786     80.26088    296.78374 
   49930   0.96531163   -9463.5067    155.56473    297.69718 
   49940   0.96501118   -9463.2947     91.06263    298.11919 
   49950   0.96434489   -9462.8136    94.594187    293.00609 
   49960   0.96333287    -9462.232     40.64163    293.46697 
   49970   0.96213899   -9461.1095   -91.889071    292.41476 
   49980   0.96122376   -9459.2838   -290.24335    296.56644 
   49990   0.96118867   -9456.9273   -248.25843    299.97613 
   50000   0.96196414   -9454.9866   -17.262851    301.17721 
   50010   0.96287942    -9453.464     124.1306     301.5908 
   50020   0.96342754   -9452.0255    180.22877    299.95786 
   50030   0.96343512   -9450.6519    91.107833    300.14506 
   50040   0.96311316   -9448.8889    29.708169      297.838 
   50050   0.96269897   -9447.0276   -89.453203    302.74149 
   50060   0.96250352   -9444.8738   -96.700278    308.38606 
   50070   0.96258503   -9442.9309     64.52829    304.65488 
   50080   0.96249291   -9441.5636    134.93127    299.80238 
   50090    0.9619534   -9440.4253    95.726893    298.25024 
   50100   0.96104925   -9438.9902    -3.133495    293.21896 
   50110   0.96017322   -9436.9434   -300.29194    301.14434 
   50120   0.96014331   -9434.0202   -207.65111    295.44889 
   50130   0.96094334   -9431.6023   -215.80931    302.17204 
   50140   0.96243332   -9429.5448    53.166013    308.74944 
   50150   0.96382569   -9428.0862    400.53616     296.1066 
   50160   0.96411964   -9426.9609    177.79932    294.14164 
   50170    0.9637826   -9425.0802   -47.175171    293.14414 
   50180   0.96357559   -9422.5938   -174.80325    298.09048 
   50190   0.96384302   -9419.9601   -6.7629993    302.70717 
   50200   0.96414752   -9417.8014    210.76964    296.34592 
   50210   0.96384302   -9415.9964     140.2752    293.32384 
   50220   0.96303825   -9413.6472    19.041941    289.22057 
   50230   0.96211426   -9410.8217   -96.460174    289.94197 
   50240   0.96145073   -9407.3055   -200.37438    295.09858 
   50250   0.96139363   -9403.5352    -187.5288    299.06161 
   50260   0.96192695   -9399.8219    38.121086    293.58914 
   50270   0.96249342   -9396.4092    1.8204736    295.91483 
   50280   0.96305963   -9392.8039    10.871566    301.43484 
   50290   0.96353916   -9389.3789    264.06036    291.65622 
   50300   0.96327682   -9386.3987    115.05782    297.79408 
   50310   0.96252719   -9382.9766    29.936811    298.04916 
   50320   0.96160424    -9379.405    4.6355028    296.67115 
   50330   0.96062958   -9375.9117   -71.395275    294.83063 
   50340   0.95987114   -9371.9285   -209.80166    294.73594 
   50350   0.95975921    -9367.543   -238.16632    299.92027 
   50360    0.9603835   -9363.5372   -16.180443    298.86961 
   50370   0.96118138   -9360.2562    99.829085    298.50745 
   50380   0.96169123   -9357.0824    146.21932    297.60094 
   50390   0.96178091   -9354.0072    9.5999035    299.63537 
   50400   0.96184092    -9350.703   -146.57641    308.39572 
   50410   0.96232961   -9347.6565   -56.613038     310.7563 
   50420   0.96305693   -9345.4075    29.649668    314.48378 
   50430   0.96367366   -9343.8714    196.98682    313.66771 
   50440   0.96367546   -9343.3391    253.37628    308.32155 
   50450   0.96289532   -9342.9814    54.066827     302.8227 
   50460   0.96187785   -9342.4695   -113.37776    304.62104 
   50470   0.96110982   -9341.8946   -60.578186    305.09253 
   50480   0.96054409   -9341.6345   -89.015824    304.72044 
   50490   0.96024282   -9341.5598   -65.138009    303.74505 
   50500   0.96013752   -9341.5745      38.9774    298.28999 
   50510    0.9599571   -9341.8342   -46.730812    299.98354 
   50520   0.95992434   -9341.8463   -120.36163    301.85945 
   50530   0.96027116   -9342.0609   -92.744718    310.16743 
   50540   0.96085529   -9342.6467    219.09604    302.04207 
   50550   0.96087656   -9344.0274    105.35105    304.18216 
   50560   0.96048923   -9345.1284   -4.1910826    307.61205 
   50570   0.96005956   -9346.2831    13.443123    300.38971 
   50580   0.95959446   -9347.6746   -79.159789    302.06311 
   50590   0.95930798   -9348.9346   -32.386724    300.03327 
   50600   0.95917684    -9350.439   -106.63574    301.34188 
   50610   0.95936336   -9351.8191   -58.302292    299.00007 
   50620   0.95981414   -9353.2961   -59.690662    300.40566 
   50630     0.960477   -9354.9627   -32.473183    303.89727 
   50640   0.96129038   -9357.0363    49.302556    305.54982 
   50650   0.96196186   -9359.3268    228.53504    294.84452 
   50660   0.96204115   -9361.9952   0.32460734    300.20535 
   50670   0.96201873   -9363.9612    -63.18716    301.76413 
   50680   0.96221257   -9366.2121   -41.839305    302.68107 
   50690   0.96251204   -9368.7564     95.26789    301.90774 
   50700   0.96253206   -9371.5983     170.3657    295.12795 
   50710   0.96206055   -9374.5498   -61.490145    300.21944 
   50720   0.96164257   -9376.9292   -31.141053    297.11311 
   50730   0.96133527   -9379.3732    15.136838    287.85743 
   50740   0.96107523   -9381.5586   -239.99126    294.54816 
   50750   0.96153162     -9383.35   -235.53304    299.90332 
   50760   0.96276919   -9385.4601    38.475587    299.03357 
   50770    0.9640092   -9388.2508    219.32381     298.5324 
   50780   0.96460135    -9391.294    229.30192     299.2261 
   50790   0.96444453    -9394.324    141.61844    294.36725 
   50800   0.96383192   -9396.7921   -86.187296    294.49535 
   50810   0.96341669    -9398.984   -170.78441    300.95672 
   50820   0.96347947   -9401.1178   -12.925294    299.17259 
   50830   0.96368243   -9403.8254   -30.704923     301.9214 
   50840   0.96394377   -9406.5009     52.44049    303.42882 
   50850   0.96405232   -9409.6654     135.9752    300.20219 
   50860   0.96371817   -9412.9717    122.01071    294.68055 
   50870   0.96300195   -9416.1471    -87.44549    297.05647 
   50880   0.96248131   -9418.7238   -180.74022    300.71798 
   50890   0.96251196   -9421.3605   -110.31078    299.76344 
   50900    0.9629668   -9424.4475   -92.400348    301.21401 
   50910   0.96372636   -9427.7087    44.516748    298.92949 
   50920   0.96444759   -9431.2165    46.573395    300.33549 
   50930   0.96502557   -9434.8603    71.307341    302.14171 
   50940    0.9653816   -9438.8566    162.95338    299.59124 
   50950    0.9652143   -9442.8128    198.22197    291.80494 
   50960   0.96443789   -9446.7395   -43.230872    294.41767 
   50970   0.96369265   -9449.8609   -190.09226    295.35948 
   50980   0.96353365   -9452.6051   -163.23502    291.47433 
   50990   0.96393405   -9455.1748   -64.513795    289.17651 
   51000    0.9646172    -9457.698    -43.22095    294.73069 
   51010   0.96542891   -9460.1644    102.58617    290.07071 
   51020   0.96603481    -9462.516    42.157531    290.78799 
   51030    0.9664945   -9464.5234    13.692686    295.42211 
   51040   0.96692387   -9466.4037    28.470001    294.59091 
   51050   0.96730459   -9468.0931    -11.11247    297.91613 
   51060   0.96767662   -9469.8349    141.96628    298.65577 
   51070   0.96757476   -9471.9893    273.51452    294.51581 
   51080   0.96663454   -9474.1016    16.421423    293.96954 
   51090   0.96555056    -9475.251   -238.40129    297.38815 
   51100   0.96513731   -9475.7484   -203.18801    298.23267 
   51110   0.96539847   -9476.4239   -80.435203    297.02862 
   51120   0.96600315   -9477.4614   -49.474274    300.61965 
   51130   0.96678017   -9478.4621    73.245135    299.55992 
   51140   0.96740869   -9479.6758    70.699902    298.73411 
   51150   0.96784723    -9480.838   -14.689081    300.92556 
   51160   0.96834203   -9481.8241   -14.897283    300.36353 
   51170   0.96890373   -9482.6426    57.652921    297.95051 
   51180    0.9693384   -9483.7346    44.187953    300.51619 
   51190   0.96963503   -9484.6173    16.393404    299.28389 
   51200   0.96991947   -9485.3426   -48.274729    298.82713 
   51210   0.97037191   -9485.9939   -67.423162    303.22955 
   51220   0.97101926   -9486.7928    70.507767    304.47175 
   51230    0.9714675   -9487.9835    189.21773    301.51687 
   51240   0.97134649   -9489.1643    141.30109    297.53242 
   51250   0.97075563   -9490.1117   -6.7025682    299.27628 
   51260   0.97013042   -9490.7105   -104.45241    302.11594 
   51270   0.96977589   -9491.1509   -32.680339    296.30413 
   51280   0.96954481   -9491.8424   -24.821215    302.04394 
   51290   0.96927987   -9492.5752    215.18957    295.78671 
   51300   0.96839503   -9493.6971    106.08687    288.42385 
   51310   0.96717546    -9493.994   -294.00852    298.18013 
   51320    0.9667222    -9493.206   -220.47098    297.61857 
   51330   0.96703839   -9492.9395   -95.715311    297.45359 
   51340   0.96766722   -9493.0916    91.021237    299.30471 
   51350    0.9680492   -9493.4106     173.2169    295.79044 
   51360   0.96790359   -9493.8141    97.777522    292.51805 
   51370   0.96744875   -9493.8213   -64.132968    292.65828 
   51380   0.96717861   -9493.2437    -198.6104    298.63676 
   51390   0.96749711   -9492.5931   -70.933774    299.06529 
   51400   0.96810156   -9492.3871     84.99797    294.09258 
   51410   0.96851826   -9492.3537    34.256879    300.57945 
   51420   0.96879448   -9492.2619    59.949518    300.99206 
   51430   0.96886494   -9492.2403    150.68001    291.79066 
   51440   0.96847945   -9492.2756    93.288197    290.49268 
   51450   0.96773664   -9492.0561   -5.9417597    291.63383 
   51460   0.96696782   -9491.1927   -123.30496    293.48997 
   51470   0.96652819   -9490.0536   -117.80364    297.24523 
   51480   0.96643216    -9489.003    26.467283    294.84926 
   51490   0.96627039    -9488.318    86.960711    290.68083 
   51500   0.96588438   -9487.2916   -106.45378    295.10466 
   51510   0.96576277   -9485.8725   -150.29496    304.90289 
   51520   0.96604559   -9484.6084    133.03472    296.22742 
   51530   0.96602572   -9483.8413     93.94671    292.84149 
   51540   0.96568889   -9482.6679   -28.102983     292.7487 
   51550   0.96542663   -9480.9732   -114.70662    295.88001 
   51560   0.96547613   -9479.1471   -5.3050753    298.42285 
   51570   0.96553886   -9477.7118    147.45339    294.12594 
   51580   0.96517953   -9476.4845    73.261755    292.77622 
   51590   0.96450744   -9474.6921    44.040294    285.46009 
   51600    0.9637421   -9472.4852   -228.39735    293.84864 
   51610   0.96360328   -9469.3413   -249.06903    300.21166 
   51620   0.96426382   -9466.6005   -21.303114    298.16707 
   51630   0.96510227   -9464.3703     101.1402    296.64444 
   51640   0.96567398   -9462.2087    142.05503    291.88395 
   51650   0.96583453   -9459.7655     84.87445    289.79661 
   51660   0.96566911    -9457.199    90.031622    291.06905 
   51670   0.96520466   -9454.3222   -10.423065    293.18222 
   51680   0.96474905   -9450.8543   -167.92272    296.86565 
   51690   0.96478908   -9446.8669   -148.45352    294.88043 
   51700   0.96535899   -9443.2577   -87.034711    300.42161 
   51710   0.96620294   -9439.8775    162.92971    298.24258 
   51720   0.96663699   -9436.9387    151.81512    299.46174 
   51730   0.96656412   -9433.8407    80.115301    301.06128 
   51740    0.9662029   -9430.7922    28.916061    301.51392 
   51750   0.96568261    -9427.955    55.597077    298.42739 
   51760   0.96498426   -9425.1891  -0.42666525    294.45379 
   51770   0.96424629   -9422.3528   -76.174119     295.6579 
   51780   0.96367339   -9419.5165   -40.458613    298.68178 
   51790   0.96316995    -9416.604    100.91468    292.69062 
   51800   0.96233749   -9414.0913    111.16689     287.8758 
   51810   0.96113165   -9411.1384   -112.45675    290.66217 
   51820   0.96024091   -9407.3797   -337.06317    298.88813 
   51830   0.96033665   -9403.4254   -156.98095    299.36806 
   51840   0.96099325   -9400.2657    104.87045    296.44399 
   51850   0.96139778   -9397.6766    126.24603    299.96909 
   51860    0.9613915   -9395.1975    78.849218    299.42398 
   51870   0.96110017   -9392.7243    65.514227    294.16952 
   51880   0.96062027   -9390.1949   -73.714818    297.52335 
   51890   0.96031887   -9387.2625   -120.98012      302.556 
   51900   0.96038303   -9384.6449    -26.51738      302.254 
   51910   0.96054843   -9382.5826    44.299286    302.66532 
   51920   0.96056558   -9380.8342    103.80107    296.73956 
   51930   0.96032202   -9378.9979    -83.62254    297.81641 
   51940   0.96031982   -9376.8434   -212.17342     306.1128 
   51950   0.96094274   -9375.0225   -33.570445    305.82843 
   51960   0.96179171   -9373.9314    25.899378    304.31099 
   51970   0.96265403   -9372.9224   -22.148486    305.64682 
   51980   0.96362805   -9372.4026    26.049165    311.28348 
   51990    0.9645076   -9372.4314    246.96696    309.84625 
   52000    0.9646268   -9373.2739    332.49872    303.18999 
   52010   0.96367494   -9374.5551    127.95266    303.24708 
   52020   0.96217089   -9375.2314   -24.549666    299.94609 
   52030    0.9606915   -9375.7314   -191.29038    301.80111 
   52040   0.95970158   -9375.7761   -144.49678    303.07451 
   52050   0.95913662   -9376.2155    -10.51842     300.4021 
   52060   0.95863213   -9376.8608   -44.012248    299.23551 
   52070   0.95830263   -9377.4367   -193.07752    300.21233 
   52080   0.95857444   -9377.7315   -189.04068    303.38352 
   52090   0.95948259    -9378.421    1.9058207    301.09058 
   52100   0.96049168   -9379.7069    73.073053    302.77079 
   52110   0.96132514   -9381.0617    73.062503    302.35842 
   52120    0.9619985   -9382.3901   -51.194669     306.7053 
   52130   0.96280926   -9383.8321   -14.247673    309.91405 
   52140   0.96369369   -9385.7148    159.18569    303.72381 
   52150    0.9641481   -9388.0853    194.00472    301.96594 
   52160   0.96396766   -9390.5902    125.97851    300.90481 
   52170   0.96334722   -9392.9741   -24.208354    300.65013 
   52180   0.96276035   -9394.8653   -147.24973    300.38898 
   52190    0.9625948   -9396.7639   -95.379105     302.7542 
   52200   0.96270159   -9398.9554    124.43278    298.36609 
   52210   0.96247454    -9401.519    91.777542    296.09135 
   52220   0.96194515   -9403.6782   -75.164404    294.43695 
   52230    0.9616467   -9405.3864   -231.34699    299.83793 
   52240   0.96203897   -9406.8796   -105.41746    300.93741 
   52250   0.96285035   -9408.8675    7.9868977    304.48058 
   52260   0.96366323   -9411.1581    106.63613    306.64146 
   52270   0.96417868   -9413.7972    152.81876    305.46436 
   52280   0.96419552   -9416.7085    179.71335    302.25556 
   52290   0.96362026   -9419.8434    118.32764    299.34819 
   52300   0.96260558   -9422.9169   -2.3458343    298.34851 
   52310   0.96151086   -9425.3163   -70.924802    295.87091 
   52320   0.96059201   -9427.6036   -117.24893    299.43031 
   52330   0.95995637   -9429.6234    19.356546    294.93466 
   52340   0.95930694   -9431.7536   -24.805139    294.87774 
   52350   0.95865919   -9433.4655   -3.7426387       296.93 
   52360   0.95797104   -9435.3494    41.317005    295.08171 
   52370   0.95713846   -9437.0521   -38.394639    289.78523 
   52380   0.95642003   -9438.1432   -172.55607    290.90088 
   52390   0.95617513   -9438.6843   -99.250984    293.51574 
   52400   0.95627223   -9439.2523   -24.167443    292.93458 
   52410   0.95653469    -9439.701   -146.48995    297.45785 
   52420   0.95727016   -9439.8369   -100.94571    297.01099 
   52430   0.95836191   -9440.3503    125.30038    297.15816 
   52440   0.95909841   -9441.1241    294.93898    292.56424 
   52450   0.95897782   -9442.0321    65.981047    300.02721 
   52460   0.95851894     -9442.27    2.4786626    298.89615 
   52470   0.95803113   -9442.4192   -4.9747533    292.08576 
   52480   0.95755788   -9442.3577   -66.523424    295.16053 
   52490   0.95726892   -9442.1334   -67.832976    296.90645 
   52500   0.95717328   -9441.9172    13.658237    294.78901 
   52510    0.9570385   -9441.8215    71.930651    291.87277 
   52520   0.95669399   -9441.7102   -44.963592    297.02978 
   52530    0.9564583   -9441.1533   -132.00005    298.35197 
   52540   0.95667868   -9440.6071   -220.80982    304.14969 
   52550   0.95754947    -9440.238    76.799635    297.62482 
   52560    0.9583059   -9440.5229     225.9879    291.48565 
   52570    0.9584084   -9440.7521    57.407547    294.90801 
   52580   0.95829068   -9440.4531   -87.394479     295.9627 
   52590   0.95845541   -9439.7953   -143.13962     296.7074 
   52600   0.95910694   -9439.2589   -96.580417    301.42941 
   52610   0.96007757   -9438.9669    118.83944    298.98175 
   52620   0.96078156   -9439.2247      124.707    300.03486 
   52630   0.96108019   -9439.2575      96.0533     298.8506 
   52640   0.96109565   -9439.3954    11.972323    298.56258 
   52650   0.96103237   -9439.3422    10.932655    299.05571 
   52660   0.96092033   -9439.2561    56.929265    293.19303 
   52670   0.96066872   -9439.1197   -41.084508     295.6598 
   52680   0.96046753   -9438.8287    14.544093    298.75903 
   52690    0.9602032   -9438.7151    92.609539     294.4267 
   52700   0.95968591   -9438.5586   -74.405709    296.08069 
   52710   0.95934599    -9437.967   -115.47978    296.70039 
   52720   0.95935316   -9437.3888   -20.111223    296.25234 
   52730   0.95943166   -9436.9768    69.400249    294.89295 
   52740   0.95932153   -9436.6364   -7.1538014    297.26771 
   52750   0.95918194    -9435.977   -14.508664    295.15961 
   52760   0.95913669   -9435.2844   -92.054977    294.54604 
   52770   0.95941389   -9434.3559   -163.64429    296.77788 
   52780   0.96025457   -9433.4845   -130.40796    301.70142 
   52790    0.9615436     -9432.92    99.298022    303.82592 
   52800   0.96259569   -9432.9156    310.11879    300.21536 
   52810   0.96272609   -9433.2988    231.65454    298.94419 
   52820   0.96208226   -9433.4368    7.5826749    296.96311 
   52830   0.96133887   -9433.0779   -155.03865    299.73775 
   52840   0.96097795   -9432.5464   -8.1550929    295.01528 
   52850   0.96071431   -9432.3282    -55.87601    293.22207 
   52860   0.96066481   -9431.5694   -202.57285     294.4587 
   52870   0.96127689   -9430.7003   -187.82054    304.27772 
   52880   0.96245088   -9430.2543    187.05514    304.23346 
   52890   0.96312734   -9430.5966    369.58877    295.08133 
   52900   0.96270666   -9431.1289    60.084503    299.68975 
   52910   0.96197044   -9430.8625    -82.69341    300.05189 
   52920   0.96145141   -9430.5342   -89.597934    302.59714 
   52930     0.961175   -9430.1757    16.946101    300.91141 
   52940   0.96083955   -9430.2817    106.15365    295.03412 
   52950   0.96015655   -9430.5883    32.779448    296.44424 
   52960   0.95931407   -9430.5275   -121.81669    302.82881 
   52970    0.9587733     -9429.96   -56.657843    296.43732 
   52980     0.958427    -9429.983    23.887682    295.89738 
   52990    0.9579404    -9429.998    151.11291    291.94574 
   53000   0.95701583   -9430.0465   -47.951004    292.59757 
   53010   0.95618489   -9429.4051   -301.12446    305.69946 
   53020   0.95620929   -9428.4319   -139.08395    302.18727 
   53030   0.95678097   -9428.0259   -14.672421    295.39016 
   53040   0.95749703   -9427.9102    -15.64248    297.77183 
   53050   0.95826961   -9427.7486    98.208414    297.50174 
   53060   0.95876373   -9427.7814    156.79177    298.40932 
   53070    0.9587811   -9427.7339    66.750805    298.22584 
   53080   0.95856818   -9427.4707   -77.963334    302.20462 
   53090   0.95853834   -9426.9927   -28.091692    303.12347 
   53100   0.95861326   -9426.8681    40.778716    300.79208 
   53110   0.95857996   -9426.8496    29.073595    297.77762 
   53120   0.95847755    -9426.946   -61.714443    297.53732 
   53130   0.95855402   -9426.7222   -71.772765    296.65186 
   53140   0.95887732   -9426.5069     3.362986    294.26015 
   53150   0.95920568   -9426.3103    92.900691     293.0018 
   53160   0.95927286   -9426.1972     56.08399    297.34611 
   53170   0.95912511   -9425.8799    31.871356    298.34125 
   53180   0.95884898   -9425.4346    32.445911    297.32358 
   53190   0.95841189   -9424.9626    114.00817    289.58897 
   53200   0.95765448   -9424.3458   -54.844162    289.10423 
   53210    0.9569896     -9422.84   -195.75773    295.21785 
   53220   0.95688151   -9420.8028   -103.87525     293.6121 
   53230   0.95718288     -9418.73   -89.142121     295.8626 
   53240   0.95781939   -9416.5643   -66.292131    299.30275 
   53250   0.95869481   -9414.5121    75.209712    299.20734 
   53260   0.95937202   -9412.6214    215.66341    294.36416 
   53270   0.95942559   -9410.6531    102.66251    294.90276 
   53280     0.959084   -9408.2631    9.5101774    304.20641 
   53290    0.9585918   -9405.6909    173.21878    294.78487 
   53300   0.95760841   -9403.3516    5.1537939    292.10093 
   53310   0.95655093   -9400.1636   -229.47457    296.40069 
   53320   0.95612453   -9396.2789   -162.65916    296.82999 
   53330    0.9562307   -9392.5231    11.901924     295.8918 
   53340   0.95637452   -9389.0748    6.4991333    298.45322 
   53350   0.95650242   -9385.3558   -39.334816    300.39397 
   53360   0.95675792    -9381.681   -34.282685    304.79216 
   53370   0.95707953   -9378.2245    143.40069    301.00885 
   53380   0.95700136   -9375.0908     119.7667    295.00888 
   53390   0.95659046   -9371.8148   -150.54254    301.92684 
   53400    0.9565411   -9367.9017   -83.293545    301.07936 
   53410   0.95679319   -9364.5569    32.777984    299.23627 
   53420   0.95695764   -9361.4941    105.58075    296.09147 
   53430   0.95682822   -9358.4758    45.125635    291.28228 
   53440   0.95658745   -9355.2287   -155.18329     298.7113 
   53450   0.95675892    -9351.505   -52.335331    294.25055 
   53460   0.95718094   -9348.1779    8.7577722    293.87576 
   53470   0.95760542   -9344.9628       30.062    298.98482 
   53480   0.95792515     -9341.78    77.645784    300.78897 
   53490    0.9580112   -9338.7111    38.538466    303.44403 
   53500   0.95794624   -9335.8087    51.960603    300.35893 
   53510   0.95773409   -9333.1283    12.266778    300.99068 
   53520   0.95743178   -9330.4755    30.799701    299.74834 
   53530   0.95699218    -9328.068    52.680883    298.64207 
   53540   0.95636965   -9325.7696   -32.214964    303.07424 
   53550   0.95574673   -9323.2741    37.388212    296.67074 
   53560   0.95505095   -9321.1621   -101.53617    301.79591 
   53570   0.95458479   -9318.7522   -120.33782    306.21492 
   53580   0.95449632    -9316.699   -76.499114    306.15631 
   53590   0.95466187   -9314.9453    27.235619    301.65955 
   53600   0.95482677   -9313.5456     3.454613    298.93479 
   53610   0.95501323   -9312.0447   -120.68388    306.45543 
   53620   0.95555016   -9310.6894   -59.145691    309.06786 
   53630   0.95630976   -9309.9478    60.852218    309.86547 
   53640   0.95691774   -9309.7516    152.61829    309.22004 
   53650    0.9570999   -9309.9728    70.849548    304.86808 
   53660   0.95706328   -9310.0795   -52.038603    307.17942 
   53670   0.95713389   -9310.3152     47.41698    301.18315 
   53680   0.95712288   -9310.8863   -28.793888     303.2407 
   53690   0.95719865   -9311.3874   -111.70553    307.69652 
   53700   0.95762579   -9312.0993   -59.413703    308.06692 
   53710   0.95825819   -9313.5387    112.87434    307.58654 
   53720   0.95854484   -9315.5384    256.99509    300.07427 
   53730   0.95810591    -9317.694   -16.943176    303.13349 
   53740   0.95758609   -9319.3813   -54.850872    301.17269 
   53750   0.95722681   -9321.3133   -31.921159    301.96216 
   53760   0.95694793   -9323.4007   -41.757737    307.59294 
   53770   0.95677374   -9325.6609    26.979579    301.14187 
   53780   0.95656082   -9328.4627   -53.704378    304.55521 
   53790   0.95643003   -9331.1614    67.037275    303.55784 
   53800   0.95609835   -9334.5213    77.686856    303.92016 
   53810   0.95547391   -9337.9606    2.1881469    303.34142 
   53820   0.95481549   -9341.2146   -54.793438    296.50192 
   53830   0.95433641   -9344.3146   -179.93737    300.69693 
   53840    0.9544098   -9347.5486   -212.11032    311.21468 
   53850   0.95510878   -9351.0665    70.257428    304.07867 
   53860   0.95575749   -9355.4885    25.086577    304.32975 
   53870   0.95631454   -9359.7345    13.150469    304.88747 
   53880   0.95686218   -9364.2479    58.139601     303.3378 
   53890   0.95724178   -9368.9307    110.56938    300.07976 
   53900   0.95731566    -9373.521    19.087679     297.9382 
   53910   0.95732269   -9377.5961   -100.87407    300.50849 
   53920   0.95763516   -9381.4952   -64.132956     299.2487 
   53930   0.95820213   -9385.3872   -4.6705613    300.03426 
   53940   0.95881878    -9389.209    82.632245    299.62611 
   53950   0.95919265   -9392.9028    148.66573    295.14012 
   53960   0.95913076    -9396.481    45.961518    294.36127 
   53970   0.95889677   -9399.2721   -60.454278    294.92861 
   53980    0.9588329   -9401.5037   -63.710125    293.39708 
   53990    0.9590007   -9403.5942   -62.033908    299.51571 
   54000   0.95932906   -9405.5978    79.546993     302.9174 
   54010   0.95940571   -9407.9271    180.33238    297.77348 
   54020   0.95890408   -9410.3101    129.99464    292.51021 
   54030   0.95792977   -9412.1347    21.950567    288.31122 
   54040    0.9568238   -9413.4314   -124.06952     289.7253 
   54050   0.95603595   -9413.8908   -163.99418    288.18542 
   54060   0.95579752     -9413.95   -234.19551    290.60796 
   54070   0.95632688   -9413.7508   -183.63748     297.3548 
   54080   0.95746446   -9413.6909    90.146554    295.08006 
   54090   0.95842262   -9414.2503    203.80406    297.02655 
   54100   0.95878336   -9414.6438    123.90422     296.6328 
   54110    0.9587775    -9414.706   -76.506547    298.13006 
   54120   0.95895422   -9414.5055   -54.863171     300.3602 
   54130   0.95933041   -9414.5162    2.8607019    301.03862 
   54140   0.95972412   -9414.5187    22.174894    299.81711 
   54150   0.96010832   -9414.8273   -45.564916    305.50145 
   54160   0.96058872   -9415.2156    105.09555    300.16996 
   54170   0.96078779   -9415.8796    174.35227    295.90798 
   54180   0.96043826   -9416.8425    67.349709    299.84253 
   54190   0.95979252   -9417.2364    5.8197286    296.99196 
   54200   0.95912048   -9417.7588   -108.80118    296.88682 
   54210    0.9587269   -9417.7406   -84.587823    294.57092 
   54220   0.95863128   -9417.7087    -101.1432    295.72837 
   54230   0.95889236   -9417.4831   -134.85238    297.15752 
   54240   0.95963158   -9417.3533   -92.124425    301.26895 
   54250    0.9606835   -9417.6279    67.548053    305.56061 
   54260   0.96155639   -9418.5145    192.67264    306.18495 
   54270   0.96184913   -9419.5676    184.17525    302.74139 
   54280   0.96157103   -9420.8321    29.860066    306.02727 
   54290    0.9611225   -9421.9474   -1.7367322    304.63368 
   54300   0.96065179   -9423.2734    5.5403788    302.15886 
   54310   0.96012962   -9424.8062     6.997231    302.06236 
   54320    0.9595436   -9426.3254  -0.76593191    298.84615 
   54330   0.95897402   -9427.7494   -152.75991    305.30898 
   54340   0.95879658   -9429.0512   -48.618946    304.49033 
   54350   0.95884062    -9430.911    14.269268    298.21393 
   54360   0.95886688   -9432.8027   -9.6167265    299.50682 
   54370   0.95889681    -9434.809    24.474855    295.89437 
   54380   0.95889285   -9436.6433   -73.838769    293.09809 
   54390    0.9591395    -9438.318   -140.14219      297.438 
   54400   0.95981964   -9439.8489    25.028446    297.10203 
   54410   0.96047412   -9441.8683    167.56368    296.68423 
   54420   0.96063725   -9443.8302    153.86262    293.13502 
   54430   0.96030947   -9445.8027    30.106685     296.3193 
   54440   0.95976034   -9447.5681    143.20503    288.60731 
   54450   0.95876602   -9449.3841    38.027687    287.95007 
   54460   0.95757395   -9450.5811   -136.08929    291.95978 
   54470    0.9567099   -9451.1466   -98.566291    288.71242 
   54480   0.95617965   -9451.5488   -139.72101    291.76702 
   54490   0.95609095   -9451.6312   -183.99664    298.61493 
   54500   0.95657337   -9451.6505   -26.369451      294.617 
   54510   0.95725334   -9452.0597    7.8766038    293.30604 
   54520   0.95794212   -9452.5372    53.128604    297.65779 
   54530     0.958418   -9452.9827    261.58354    292.02396 
   54540   0.95813769   -9453.8121    165.52952    289.18697 
   54550   0.95729474   -9453.8906   -100.14481    293.63398 
   54560   0.95667653   -9453.1714   -221.65004    295.56952 
   54570   0.95675171   -9452.1583    -189.7208    299.11804 
   54580    0.9574443    -9451.405    16.408682    296.77146 
   54590    0.9581755   -9451.1702    164.09611    288.90132 
   54600   0.95848363   -9450.7124     23.68515    292.49491 
   54610   0.95869873   -9449.6093   -121.96756    301.36342 
   54620   0.95925963    -9448.277   -28.338556    302.65149 
   54630   0.95997529   -9447.3651     83.69266    301.19378 
   54640   0.96049136   -9446.7532    82.094424    299.65371 
   54650   0.96076227   -9445.8913     52.34105    295.49038 
   54660   0.96089738   -9444.8381    -33.69731    298.99862 
   54670   0.96108791   -9443.3255    16.430853    297.08942 
   54680   0.96127431   -9441.8776   -6.7798807    295.68052 
   54690   0.96150327   -9439.9625   -50.518746    294.55922 
   54700   0.96190678    -9437.861   -22.756244    298.87095 
   54710   0.96236585   -9435.7307     138.6253    295.05048 
   54720   0.96247492   -9433.7616    44.489354    298.37126 
   54730   0.96238394   -9431.0597    30.395401    295.23575 
   54740   0.96222282   -9428.0952   -42.835097    299.19925 
   54750   0.96212644    -9424.592    39.659934     295.2323 
   54760   0.96198242    -9421.037   -77.217534    298.30658 
   54770   0.96202292   -9416.8947   -33.661647    302.79158 
   54780   0.96211425   -9412.8972    206.32539    296.94149 
   54790   0.96162296   -9409.1987    75.912232    295.58289 
   54800   0.96088064   -9404.7404   -203.84611    298.40259 
   54810   0.96070702   -9399.5245    -161.7898    299.50174 
   54820   0.96106407   -9394.6674    10.702036    299.96075 
   54830   0.96144237    -9390.138    64.562153    304.28846 
   54840   0.96158762   -9385.8166      144.581    299.88657 
   54850   0.96132093   -9381.6691   -25.016391    305.73487 
   54860   0.96107707    -9377.116   -100.59166    303.68063 
   54870   0.96122653   -9372.6288   -191.54256    302.23693 
   54880   0.96198595   -9368.7502   -75.166629    309.43492 
   54890   0.96297496   -9365.4281     278.8855    303.20295 
   54900   0.96317568   -9363.2833    287.83978    303.00707 
   54910   0.96236597   -9361.1632    225.63431    298.93122 
   54920   0.96079588   -9359.1801   -46.117642    298.75591 
   54930   0.95926991   -9356.1742   -293.64985    301.87663 
   54940    0.9585868   -9352.9501   -250.66819     303.8624 
   54950   0.95869824   -9350.2144   -52.343656    302.26507 
   54960   0.95902537   -9348.1655    82.532882    301.39459 
   54970   0.95913645   -9346.3899     77.75849    296.96979 
   54980   0.95906805   -9344.6027   -159.44135    305.30577 
   54990   0.95940053   -9342.5666   -57.537768    307.65244 
   55000   0.95997559   -9341.2758    63.073571    307.33089 
   55010   0.96037828   -9340.2966    114.33841    305.38118 
   55020    0.9604732   -9339.6813    22.868915    304.02396 
   55030   0.96048316   -9339.1079   -47.825254    308.61782 
   55040   0.96057888   -9338.8121    97.276742    304.53942 
   55050   0.96041044   -9338.8987    96.325636    302.53589 
   55060   0.95988175   -9339.2817    83.478824    297.80666 
   55070   0.95908088   -9339.6007   -70.590873    297.74044 
   55080   0.95842931   -9339.2642   -107.18381    293.96152 
   55090   0.95812589   -9338.8536   -100.18631     293.1399 
   55100    0.9581672   -9338.3345   -140.82496    299.39319 
   55110   0.95866303   -9337.8562   -88.680079      305.283 
   55120   0.95944348   -9337.8426     135.9618    302.46768 
   55130   0.95986221   -9338.4585    214.10932     302.1071 
   55140   0.95959454   -9339.3353    114.35819    306.93782 
   55150   0.95886662   -9340.1682    76.495457    301.40716 
   55160    0.9578477   -9341.0657   -41.487704    301.80802 
   55170   0.95686045   -9341.7998   -49.737739    294.20678 
   55180    0.9560685   -9342.3494   -228.43833    296.39395 
   55190   0.95594568   -9342.4292   -186.55276    297.37776 
   55200   0.95644623   -9342.7694    2.0967972    295.58508 
   55210   0.95703534   -9343.4842    41.408986    297.25018 
   55220   0.95756627   -9344.1353   -69.340339     302.7254 
   55230   0.95831621   -9344.8048   -46.559308    304.77048 
   55240   0.95924702    -9345.872    75.547012    301.67636 
   55250   0.96002741   -9347.2565    85.793821    302.16272 
   55260   0.96054728   -9348.7959    136.44846    297.73904 
   55270   0.96065591   -9350.7845    91.033906    300.27809 
   55280   0.96043432   -9352.5825    20.972371    303.19599 
   55290   0.96013239   -9354.4706   -70.316531    303.42122 
   55300    0.9600141   -9356.4734   -1.8593907    301.41893 
   55310   0.95988962   -9359.0608     128.1346    299.29001 
   55320   0.95935382   -9362.0202    101.89244      297.097 
   55330   0.95844574   -9365.1265   -38.394514    297.33185 
   55340   0.95755976   -9368.0344   -53.014042    293.84678 
   55350   0.95682396   -9371.0149   -72.960804    293.44726 
   55360   0.95630509   -9373.9426   -78.538503     293.0261 
   55370   0.95604767   -9376.7125   -114.06915    294.07874 
   55380   0.95615883   -9379.6404   -110.90744    295.95479 
   55390   0.95660689   -9382.7626    49.905132    291.71187 
   55400   0.95698409   -9386.2309    55.818678     290.0596 
   55410   0.95722088   -9389.4943   -65.335597    292.91177 
   55420   0.95764685   -9392.5574   -52.405675    290.66905 
   55430   0.95828984   -9395.6774    -6.466287    290.41453 
   55440   0.95902481   -9398.8621   -32.131589    296.85986 
   55450   0.95984533    -9402.517      89.9512    300.67806 
   55460   0.96038997    -9406.262    257.24987    291.11083 
   55470     0.960208   -9410.2849    65.503154    292.63615 
   55480   0.95975119   -9413.6523    -93.34931    292.32226 
   55490   0.95959102    -9416.703   -221.93988    297.14221 
   55500    0.9601119   -9419.7145   -115.08063    297.49567 
   55510   0.96106667   -9423.1499    38.796302    296.39618 
   55520   0.96195365   -9427.1555    143.08712    299.99345 
   55530   0.96236651   -9431.1978    285.90654    292.37831 
   55540   0.96194771    -9435.535    40.828548    296.94021 
   55550   0.96126857   -9439.0905   -90.013844    298.81613 
   55560   0.96085578   -9442.7304   -144.78998     304.8619 
   55570   0.96079612   -9446.6364    126.58604    297.98215 
   55580   0.96041674   -9451.0322    141.56809    291.20385 
   55590   0.95960554   -9455.1818    -148.7046    297.08831 
   55600   0.95914929   -9458.3494   -138.09887    290.67831 
   55610   0.95915258   -9461.5471    -17.83776    287.53822 
   55620   0.95924607   -9464.5335    12.972732    290.66838 
   55630   0.95932237   -9467.3836   -76.634565    296.39132 
   55640   0.95960728   -9469.8159   -10.619202    293.95615 
   55650   0.95999588   -9472.2948    2.9803507     291.2825 
   55660   0.96038913   -9474.5994    65.174139    291.77253 
   55670   0.96057114   -9476.8155    124.73133    291.53864 
   55680   0.96038712   -9478.9854   -0.6592494    293.54998 
   55690   0.96014612    -9480.516   -36.396362    294.46908 
   55700   0.95998604   -9481.9526    39.481799    289.97655 
   55710   0.95974919   -9483.1963   -23.702858    288.14023 
   55720   0.95957267    -9483.948   -81.101256     290.5783 
   55730   0.95962753   -9484.3548   -37.714806    292.51833 
   55740   0.95981315   -9484.7455    6.3611681    294.73629 
   55750   0.95999036   -9485.1813    16.135357    295.32144 
   55760   0.96012464   -9485.5261    13.088253    297.92303 
   55770   0.96019558   -9485.8896    83.302136    296.20745 
   55780   0.95999908   -9486.3238    109.05848    292.82367 
   55790   0.95940327   -9486.7787    117.44792      291.433 
   55800   0.95835873   -9486.9711    98.361341     286.5577 
   55810   0.95699064    -9486.893   -155.62348     289.1761 
   55820   0.95605046   -9485.6291   -338.56421    291.81174 
   55830   0.95615822   -9483.9447   -242.19247    293.35087 
   55840   0.95708806   -9482.6183    40.750511     291.1642 
   55850   0.95794704   -9481.7444    289.25327    286.50631 
   55860   0.95794274   -9481.0334     262.8915     284.2998 
   55870   0.95706198   -9479.8205    32.839608    287.80968 
   55880   0.95599195   -9477.7473   -151.40061     288.3251 
   55890   0.95535547   -9474.8365   -205.22327    289.55932 
   55900   0.95534956   -9471.8573   -75.750002    289.88629 
   55910   0.95559761   -9469.0358    95.229279    291.07058 
   55920   0.95553178   -9466.6142    169.10978    290.36001 
   55930   0.95493896   -9463.8255    38.007083    284.94018 
   55940   0.95420212   -9460.3558   -152.10489    285.31782 
   55950   0.95390739   -9456.1593   -190.14191    287.83899 
   55960   0.95424525   -9451.9683   -156.67176    293.53051 
   55970   0.95510361   -9448.0308   -9.6593851    296.29196 
   55980    0.9560769   -9444.5716    86.389984    293.99968 
   55990   0.95688214   -9441.3627   -0.1765009    293.48054 
   56000   0.95772827   -9438.0572   -76.840547    298.68554 
   56010   0.95883586   -9435.0584    31.827307    298.85751 
   56020   0.95991246   -9432.5905    165.06351    293.17434 
   56030   0.96058625   -9430.3447    27.714891     296.0772 
   56040   0.96115081   -9428.1968   -7.5161892    298.63459 
   56050    0.9617398    -9426.313    90.057525    296.71518 
   56060    0.9620696   -9424.8581    124.86522    298.85008 
   56070   0.96200551   -9423.7314     65.42632    300.38416 
   56080    0.9617135   -9422.6005    -5.424675    299.76404 
   56090   0.96141626   -9421.5467   -62.720771    301.54189 
   56100   0.96132267    -9420.633   -141.48302    305.35891 
   56110   0.96162979   -9419.7039    12.215066    300.63439 
   56120   0.96196328   -9419.5916    103.08461    300.08474 
   56130   0.96197016   -9419.5765    101.59061    303.66976 
   56140   0.96163117   -9419.7409     31.40945    306.72446 
   56150   0.96109077   -9420.0741    149.86968    295.40021 
   56160   0.96008977   -9420.6579    94.742787    287.61358 
   56170   0.95872783   -9420.7124   -140.73386    293.65127 
   56180    0.9577054   -9419.8916    -228.2796    291.43368 
   56190   0.95744954   -9418.7227   -334.90329    295.10065 
   56200    0.9582691    -9417.624   -202.85373    300.03579 
   56210   0.95978036   -9417.0211    142.39388    295.41381 
   56220   0.96099191    -9417.156    221.51397    298.24719 
   56230   0.96149093   -9417.3792    235.59322    301.13841 
   56240   0.96121191   -9417.4737    203.19187    293.47843 
   56250   0.96031173   -9417.4781   -105.35677    295.58602 
   56260   0.95965245   -9416.3946   -264.62284    300.27242 
   56270   0.95979435   -9415.3373   -99.812641    297.44643 
   56280   0.96032762   -9414.7105    75.523976    295.02109 
   56290   0.96066359    -9414.157    154.27619    290.21036 
   56300   0.96057089   -9413.7988    7.8376401    296.66952 
   56310   0.96033009   -9412.9839    59.948763    294.40065 
   56320     0.959957   -9412.1152   -65.909733    294.78253 
   56330   0.95972438   -9410.6929   -64.801649    292.91925 
   56340   0.95971546   -9409.4512   -38.007933    295.54727 
   56350    0.9597837   -9408.1191    66.266912    295.77897 
   56360   0.95970713   -9406.7901     -38.6054    297.35962 
   56370   0.95974679   -9405.0479   -124.53666    297.40101 
   56380   0.96022132   -9403.2803   -140.71151    299.33853 
   56390   0.96118084   -9401.6799   -76.668812    305.54507 
   56400   0.96242936   -9400.3576    126.34688     302.6121 
   56410   0.96337203   -9399.7331    212.14694    300.07317 
   56420   0.96366992   -9399.2397     163.1733    303.47207 
   56430   0.96340985   -9398.6055    61.899532    303.87161 
   56440   0.96291114   -9397.9213   -44.654972    308.19498 
   56450   0.96245334   -9397.3308    49.121907    302.52757 
   56460   0.96189108   -9397.1355    -70.17735    305.14704 
   56470   0.96151614   -9396.7073   -150.24205     305.0975 
   56480   0.96163426   -9396.5322   -147.58791    309.79252 
   56490   0.96221027   -9396.5947    34.223342    307.53827 
   56500   0.96276483   -9397.6136    88.123337    307.85087 
   56510   0.96303997   -9398.9231    139.36968    303.87309 
   56520   0.96289051   -9400.5592    93.877395    303.20368 
   56530   0.96234608   -9402.2147    140.63453    299.26356 
   56540   0.96134939   -9404.1433   -21.793177    302.28274 
   56550   0.96031081   -9405.7953   -103.20366    303.39023 
   56560   0.95952406   -9407.4369   -1.1605779    293.68316 
   56570   0.95879428    -9409.415   -114.66937    297.45731 
   56580   0.95834832   -9411.0982   -96.858244    299.62585 
   56590   0.95819191   -9412.9194   -13.411632    297.83368 
   56600   0.95811388    -9415.031   -44.341839    294.03019 
   56610   0.95820696   -9416.9316   -113.32472    294.47744 
   56620   0.95864342    -9418.723    -12.41755    291.86287 
   56630   0.95921454   -9420.5636   -25.645873    291.44019 
   56640   0.95994484    -9422.096   -100.44544    291.63506 
   56650   0.96105595   -9423.7301    -85.25934    297.93989 
   56660   0.96244414   -9425.6064    146.71552    299.37586 
   56670   0.96345851   -9427.9694    240.05001    298.16109 
   56680   0.96375325   -9430.4331    106.71259    300.26109 
   56690   0.96368588   -9432.4976    -31.15998    301.05386 
   56700   0.96366787   -9434.6275    6.2274848    300.08476 
   56710   0.96363808   -9437.1144    35.651519    302.32451 
   56720   0.96344658   -9439.9365    110.46991    304.23306 
   56730   0.96288239   -9443.1453    94.965927    300.80289 
   56740   0.96203184   -9446.2811   -115.04511    297.55015 
   56750   0.96149651   -9448.9388   -201.82075    295.02576 
   56760    0.9616277   -9451.6314   -170.81431    295.62813 
   56770    0.9623338   -9454.6561    -82.45369    302.42674 
   56780   0.96331838   -9458.2328    134.13696    300.97536 
   56790   0.96394322   -9462.2286    226.54445    293.30496 
   56800   0.96391662   -9466.0577    44.416209    289.54876 
   56810   0.96373438   -9469.3045   -148.16415     291.7164 
   56820   0.96402212   -9472.1638   -228.13269    296.48552 
   56830   0.96505898   -9475.1763   -95.089443     298.6029 
   56840   0.96648292   -9478.6506    119.84091    292.94008 
   56850   0.96767409   -9482.3463    83.777036    299.01882 
   56860   0.96854785   -9486.0071    235.44954    297.85354 
   56870     0.968709   -9489.9073    231.71324    295.41913 
   56880   0.96811512   -9493.6951    49.204445    296.68248 
   56890   0.96728033   -9496.8496   -44.128339    295.20755 
   56900   0.96652847   -9499.8829   -57.392512    294.53886 
   56910   0.96592441   -9502.7883   -24.355498    292.57713 
   56920   0.96536305   -9505.6716    37.114716    287.72339 
   56930   0.96469671   -9508.1399   -78.149402    290.99573 
   56940   0.96424064   -9510.1187   -205.77187    298.38742 
   56950   0.96435397   -9512.0083   -35.869691    295.48394 
   56960   0.96465813    -9514.169    66.975051    291.04622 
   56970   0.96479074   -9516.2164    38.334952    294.45891 
   56980   0.96478519   -9518.1284    8.1191674    298.23395 
   56990   0.96470794   -9520.0033    62.519536    296.30703 
   57000   0.96442911   -9521.9793    54.756981    292.25186 
   57010   0.96396894   -9523.6801   -57.513742    293.94054 
   57020   0.96364643   -9524.9622   -69.463093     292.6778 
   57030   0.96356151   -9526.0045   -72.272999    291.28326 
   57040   0.96372549   -9527.1229    -68.47275    296.00122 
   57050   0.96410161   -9528.0206    55.932315    292.39426 
   57060     0.964379   -9528.8563     11.60071    290.27973 
   57070   0.96465249   -9529.5202   -77.691357    290.82157 
   57080   0.96521383   -9529.7611   -130.46432    292.97047 
   57090   0.96622549   -9529.9313   -40.975944    295.34683 
   57100   0.96743303   -9530.3144    107.47502    295.83808 
   57110    0.9683314   -9531.0104    245.12441    297.10749 
   57120   0.96846015   -9531.7358    260.20885    293.14941 
   57130   0.96772794   -9532.4549    118.38464    289.02639 
   57140   0.96655319   -9532.4081   -47.185721    286.77206 
   57150   0.96544538   -9531.6987    -182.0292    292.48719 
   57160   0.96484117   -9530.3183    -159.6808    291.31771 
   57170    0.9647974   -9528.7951   -195.38475    295.15025 
   57180   0.96540104   -9527.2862   -119.75425    299.72386 
   57190   0.96641247   -9525.9659     114.8181     297.6329 
   57200   0.96714029   -9525.0812    228.24831    294.12184 
   57210     0.967162   -9524.0778    160.70721    291.80841 
   57220   0.96663194   -9522.4729    34.950372    291.49655 
   57230   0.96595203   -9520.1652   -101.73477    292.10036 
   57240   0.96555756   -9517.1927   -130.13025    292.30749 
   57250   0.96555788   -9513.6409   -6.2951723    292.31861 
   57260   0.96558847   -9509.9562    115.45126    290.26428 
   57270   0.96528275   -9505.7912    71.026125    288.08069 
   57280   0.96471172   -9500.7328   -27.108097    288.01241 
   57290   0.96418819   -9494.5157   -103.87945    293.23081 
   57300   0.96392232   -9487.4074    15.345151     290.7307 
   57310   0.96363708   -9480.0003    38.256033    290.80719 
   57320   0.96321563   -9472.0382   -23.387865    291.84341 
   57330   0.96284606   -9463.4602   -77.684828    293.78979 
   57340   0.96270794   -9454.8395   -59.153546     296.9444 
   57350   0.96277619   -9446.5427   -60.816851    299.77003 
   57360   0.96306508   -9438.8862   -59.558387    303.20589 
   57370   0.96352841   -9432.2822     100.1571    301.68764 
   57380   0.96370086   -9427.0225    222.35759    299.86618 
   57390   0.96312006   -9422.7397     249.2958    295.32291 
   57400   0.96171349   -9419.3506     21.63797    294.45848 
   57410   0.96012053   -9415.5914   -195.81093    293.57512 
   57420   0.95912958   -9411.4915   -398.01178    301.20439 
   57430   0.95930763   -9407.7047   -149.15628    300.67207 
   57440   0.96004738    -9405.027    124.80659    296.92855 
   57450    0.9604947   -9403.0234    97.282998    301.61412 
   57460   0.96058968   -9401.2159    95.109664    302.62163 
   57470   0.96033209   -9399.9266    162.52853    298.40972 
   57480   0.95953843   -9398.9114    132.18973    292.41378 
   57490   0.95827321   -9397.9685   -23.295922    298.39823 
   57500   0.95693083   -9396.5563    4.4654379    293.02064 
   57510   0.95558967   -9395.1011   -173.44493    295.56235 
   57520   0.95467038   -9393.1457   -124.98155    296.04559 
   57530   0.95413615   -9391.3224   -24.216133    295.81614 
   57540   0.95368412   -9389.6692   -9.7194787    300.96094 
   57550    0.9532061   -9388.1522    88.685891    291.65568 
   57560   0.95252612    -9386.645   -146.62221    294.54655 
   57570   0.95224836   -9384.2969    -300.3791     301.9829 
   57580   0.95292653   -9382.0712   -188.00528    303.11102 
   57590   0.95429495   -9380.5307    30.399601    299.99756 
   57600   0.95571393   -9379.4782    121.93546    298.60718 
   57610   0.95683142   -9378.6305    79.411677    302.64538 
   57620    0.9576793   -9377.7716    137.40247    305.79543 
   57630    0.9580687   -9377.2543    278.95234    299.75188 
   57640   0.95763515   -9377.0094    98.505577    298.65787 
   57650   0.95684255   -9376.1107   -173.04967    305.56574 
   57660   0.95646812   -9374.8435   -93.120923    302.36232 
   57670   0.95641281   -9374.1566     9.616394    298.48617 
   57680   0.95636862   -9373.4714    -12.66843    297.98764 
   57690   0.95636983   -9372.8492   -61.610896    297.83444 
   57700   0.95659171   -9372.1915   -80.762588    299.53871 
   57710   0.95706255   -9371.6352    35.443895    301.00232 
   57720    0.9574646   -9371.2758    109.21773    298.89718 
   57730   0.95755031   -9371.1714    72.038466    301.00131 
   57740   0.95735759   -9371.0582    69.241904    301.53948 
   57750   0.95694405    -9371.001   -38.943857    300.73081 
   57760   0.95662925   -9370.7374   -127.54159    303.05455 
   57770   0.95671481   -9370.5785   -97.650787    304.08253 
   57780   0.95710534   -9370.5816    112.31278    294.91637 
   57790   0.95722296   -9371.1436    124.54299    294.66071 
   57800   0.95687463   -9371.5212      131.248    294.46592 
   57810   0.95611308   -9371.6661   -54.943381     294.0822 
   57820   0.95549494   -9371.2602   -260.63099     302.9805 
   57830    0.9555827   -9370.6712    10.930514    296.73615 
   57840   0.95575314   -9370.7558    93.153441    293.80339 
   57850   0.95564019   -9370.7316    5.3328841    298.20984 
   57860   0.95545997   -9370.3209   -12.459298    294.11446 
   57870   0.95533757    -9369.974   -115.39707    298.38939 
   57880   0.95554392   -9369.2171   -51.667147     296.9344 
   57890   0.95597271   -9368.6998   -7.3566553    298.20007 
   57900   0.95642074   -9368.4297    96.715479    298.60671 
   57910   0.95655961   -9368.2621    178.41041    294.79279 
   57920   0.95617572   -9368.1513  -0.37787351     296.1474 
   57930    0.9557508   -9367.4345   -164.88982    301.47279 
   57940    0.9557818    -9366.536   -32.786321    300.58703 
   57950   0.95594532   -9366.1592    101.50026    301.06573 
   57960   0.95578159   -9366.1195    140.65058    295.87364 
   57970    0.9552071   -9365.8299   -30.298727    288.41329 
   57980   0.95476272   -9364.8781   -343.50493    299.09291 
   57990   0.95533313   -9363.1849   -239.71725    301.74438 
   58000    0.9567543   -9362.5201    4.4162615    306.82145 
   58010   0.95824575   -9362.4438    238.65248    302.88916 
   58020   0.95912443    -9362.684    159.05279    300.11889 
   58030   0.95948713   -9362.5964    71.047973    302.48622 
   58040   0.95956878   -9362.6758     107.6508    304.44491 
   58050   0.95927523   -9363.1823    137.00865    304.76403 
   58060   0.95848878    -9363.806    136.64195    298.56296 
   58070   0.95723056    -9364.463    10.248274    292.57821 
   58080   0.95591518   -9364.5437   -225.36247    293.03858 
   58090   0.95524636   -9363.9041   -279.00408    295.81822 
   58100   0.95544077   -9363.2151   -117.12427    296.31378 
   58110   0.95606831   -9362.9498    28.952777    294.60894 
   58120    0.9566799    -9362.678    52.297471    294.75156 
   58130   0.95717101   -9362.5177    2.2621244    300.79115 
   58140   0.95762689   -9362.2402    75.786854    297.12115 
   58150    0.9579113   -9361.9828   -4.3908827    297.65874 
   58160   0.95821031    -9361.711   -85.686757    306.64058 
   58170   0.95871754   -9361.3945    131.43499    299.96989 
   58180   0.95891653   -9361.7418    118.31064    298.99485 
   58190   0.95868659   -9361.9403    120.88794    293.41429 
   58200   0.95810036   -9362.0298   -57.467936    295.29381 
   58210   0.95760277   -9361.5253   -131.39232    301.45143 
   58220   0.95750052   -9360.9278   -108.78253    301.61054 
   58230   0.95776671   -9360.6603   -47.620505    300.91252 
   58240    0.9582143   -9360.7218    55.069741    301.84265 
   58250   0.95852025   -9361.0931    80.487866    303.02704 
   58260   0.95857924   -9361.4598    33.928847    301.22383 
   58270   0.95855806   -9361.7574   -98.577486    303.42682 
   58280   0.95877212   -9362.0946     63.88846    299.55464 
   58290   0.95884024   -9363.0088    139.54258    295.89244 
   58300   0.95850177   -9364.0506    -54.84604    300.06691 
   58310   0.95826855   -9364.4583   -100.05907    300.67772 
   58320   0.95834593   -9365.1892   -20.344959    297.37632 
   58330   0.95852814   -9366.1282    27.447833    298.65064 
   58340   0.95860768   -9367.0432     115.7098    292.87445 
   58350   0.95837957   -9368.0113   -24.189337    293.30692 
   58360   0.95818045   -9368.6566   -124.88563    302.35486 
   58370   0.95830039   -9369.2755    24.044548    301.19081 
   58380   0.95841197   -9370.4406    30.451081    302.34854 
   58390   0.95840482    -9371.937     34.40615      302.039 
   58400   0.95831258   -9373.3031    3.9893228    293.33989 
   58410   0.95826027   -9374.7166   -196.43089    304.68789 
   58420   0.95871083   -9375.9904    2.0641528    301.27971 
   58430   0.95929893   -9377.9204    12.787688    297.59662 
   58440   0.95989597   -9379.7093   -40.649416    298.25507 
   58450    0.9606785   -9381.5739   -81.675102    304.24627 
   58460   0.96171169   -9383.8817    85.132807    305.75058 
   58470   0.96252446   -9386.7586    251.18496    297.48694 
   58480   0.96261879   -9390.1462    144.19578    300.40583 
   58490   0.96213579   -9393.5026    181.34685    299.48472 
   58500    0.9610212   -9397.2545    132.28924    294.96541 
   58510   0.95946022    -9400.685   -157.21858    296.45611 
   58520   0.95827444   -9403.2008   -246.04846    295.01056 
   58530   0.95787801   -9405.5223   -226.96585    295.25065 
   58540   0.95817426    -9408.174   -3.1197104    294.55668 
   58550   0.95852229   -9411.3068    165.04204    291.06123 
   58560   0.95840561    -9414.313    47.540318    292.11743 
   58570    0.9581334   -9417.0732    -138.6501    297.86285 
   58580   0.95823723   -9419.5357   -104.50457    299.44618 
   58590    0.9587095   -9422.1845   -28.445196    298.69099 
   58600   0.95933502   -9424.9366    -1.146744     298.4509 
   58610    0.9599986   -9427.6987    96.023563    291.72486 
   58620   0.96044251   -9430.5598    33.744897    293.92477 
   58630    0.9607592    -9433.255    14.909361    295.85656 
   58640   0.96103469   -9436.0017    29.780112    297.54941 
   58650   0.96120055   -9438.7316    77.641724    295.59517 
   58660   0.96115507   -9441.4075    8.2190159    293.77327 
   58670   0.96105128   -9443.7236    7.5565317    289.12624 
   58680   0.96095524   -9445.8274   -104.92674    296.95321 
   58690    0.9611252   -9447.7275    -28.48363     298.6266 
   58700   0.96143887   -9449.8325    11.316882    294.54154 
   58710   0.96179353   -9451.7102   -108.41681    298.12651 
   58720   0.96248046   -9453.5809   -22.622654    298.32648 
   58730   0.96329274   -9455.7291    127.61948    294.52629 
   58740   0.96377875   -9458.0731    126.20779     291.8291 
   58750   0.96387874   -9460.0935    25.979174    294.73859 
   58760   0.96386084   -9461.8727   -43.491638    299.96679 
   58770   0.96391799   -9463.6118    82.471288    294.08914 
   58780     0.963783   -9465.4061    38.729306    290.15587 
   58790    0.9635525   -9466.8866   -169.59808    296.08057 
   58800   0.96380834   -9467.9176   -162.83461    296.32275 
   58810   0.96463661    -9469.188   -34.196272    295.16303 
   58820   0.96562772   -9470.7098    134.07016    294.25935 
   58830   0.96626026   -9472.3935    182.00415     294.6769 
   58840   0.96631686   -9473.8625    142.52882    291.40482 
   58850   0.96595429   -9475.1181   -84.954513    297.96419 
   58860   0.96573442   -9475.9613   -31.793704    302.35387 
   58870   0.96560832   -9477.2515    96.167296    298.20917 
   58880    0.9651898   -9478.7484    69.504925    297.71242 
   58890   0.96449245   -9480.2951    28.624253    294.23514 
   58900   0.96367624   -9481.7711   -60.751037    293.37795 
   58910   0.96297241   -9482.8693   -14.182729    287.81168 
   58920   0.96234068   -9483.8613   -84.771701    292.53348 
   58930   0.96187013   -9484.5895    84.711531    286.89826 
   58940   0.96117008   -9485.3236     39.42043    284.36059 
   58950   0.96031061   -9485.5155   -162.99664    292.69695 
   58960   0.95988033   -9485.0989   -136.18406    288.43753 
   58970   0.95993293   -9484.5497    -129.1909    289.22027 
   58980    0.9603732    -9483.816    58.247195    291.15404 
   58990   0.96062649    -9483.107    274.11858    282.94998 
   59000   0.96008492   -9482.3614    77.462028    283.31653 
   59010     0.959205   -9480.3647   -105.86538    286.65846 
   59020   0.95860104   -9477.5954   -159.88071    291.72272 
   59030   0.95849255   -9474.1316   -133.77159    293.63328 
   59040   0.95885186   -9470.3586   -95.206387     296.8256 
   59050   0.95952484   -9466.4806     90.80369    292.45587 
   59060   0.95997727    -9462.531    184.50142    291.36954 
   59070   0.95984772   -9458.2265    131.84537    294.75638 
   59080   0.95922505    -9453.259    82.368322    291.53797 
   59090   0.95834934   -9447.7825   -160.75248    292.96572 
   59100    0.9579281    -9441.113    -256.8004    297.07742 
   59110    0.9583034   -9434.3308   -81.641346    298.30393 
   59120   0.95901982   -9427.9139    67.166528     297.0529 
   59130   0.95959422   -9421.7144    92.734327    295.91182 
   59140   0.95988127   -9415.7666    90.770108    298.69194 
   59150   0.95983296   -9410.0401    183.82505    291.87043 
   59160   0.95924232   -9404.8377    1.7480046    294.72701 
   59170   0.95854096   -9399.3362   -70.441299    295.20415 
   59180   0.95804859   -9394.0548   -125.46657    297.88167 
   59190   0.95788963   -9389.1178   -30.770687     302.0754 
   59200   0.95780329   -9384.9845     142.1781    296.81571 
   59210   0.95735126   -9381.4001   -36.199105    296.43513 
   59220   0.95697379   -9377.7417   -191.15433    300.40657 
   59230   0.95715809    -9374.253   -66.643466    297.53715 
   59240    0.9576113   -9371.5629    82.263378    295.09729 
   59250   0.95784176   -9369.1841    130.30043    291.72311 
   59260   0.95768774   -9366.9079     2.715619    293.88946 
   59270   0.95747653    -9364.399   -52.007569     296.8997 
   59280   0.95740236    -9361.908   -10.769295    297.37615 
   59290   0.95738511   -9359.8528   -37.304667    302.48921 
   59300   0.95745426   -9357.7677    6.3527719    304.09773 
   59310   0.95750049   -9356.2179    78.537272    302.12388 
   59320   0.95733361   -9354.9388      11.3554     302.2115 
   59330   0.95712752   -9353.7947   -100.14844    304.85391 
   59340   0.95720144   -9352.7038   -33.028511    304.17348 
   59350   0.95737616   -9352.0464    139.67904    298.30818 
   59360   0.95716308   -9351.7064    79.527238    298.69199 
   59370     0.956663   -9351.1761   -41.987506    297.06701 
   59380   0.95629581   -9350.3575   -165.52726    299.38495 
   59390   0.95640635   -9349.4246   -93.475183    303.65326 
   59400   0.95681884    -9348.874    94.356583      300.555 
   59410    0.9570157   -9348.7864    65.407161    303.83833 
   59420   0.95694208   -9348.7496     119.8462     297.7618 
   59430    0.9565594   -9348.8811   -102.55448    301.93967 
   59440   0.95640563   -9348.3379   -124.85019    302.76931 
   59450   0.95668662   -9348.2055   -78.303714    303.10328 
   59460   0.95726825   -9348.2867   -59.955243    306.06467 
   59470   0.95804439   -9348.7633    110.07027    302.69387 
   59480   0.95853312   -9349.8137    163.71399    302.66024 
   59490   0.95851752   -9350.9811     63.37951    303.71455 
   59500   0.95827913   -9351.9014   -47.781417    302.47641 
   59510   0.95819068   -9352.9448   -139.49566    310.11957 
   59520   0.95847101   -9354.2569    72.618573    306.19976 
   59530   0.95858735   -9356.1035    152.93866    296.58719 
   59540   0.95831047   -9358.2446   -175.34309    307.06103 
   59550   0.95845863   -9359.7939   -127.52666    305.11899 
   59560   0.95907626   -9361.9521    14.084456    303.79824 
   59570    0.9596969   -9364.7059     112.1438    305.82321 
   59580   0.95998419   -9367.6745    151.23276    301.09943 
   59590   0.95980295   -9370.9937    39.083906    305.89325 
   59600   0.95942227    -9374.192    13.028629    301.15339 
   59610   0.95898779     -9377.32    -10.96857    295.16036 
   59620   0.95858104   -9380.3566   -60.475807    294.35136 
   59630   0.95836991   -9383.1808   -123.10018    293.73475 
   59640   0.95857787   -9385.7841   -171.85083    296.23061 
   59650   0.95937945   -9388.4621   -129.25151    301.00871 
   59660   0.96062255   -9391.4066    131.95812    298.83779 
   59670   0.96151168   -9395.0278    328.91145    295.33937 
   59680   0.96140023   -9398.6242    213.55533    293.38936 
   59690   0.96056943   -9401.7074   -71.624147    294.82589 
   59700    0.9598796   -9403.8953   -208.81433    295.32788 
   59710   0.95979986   -9406.0371   -83.708482    293.73003 
   59720   0.96000887   -9408.2575    83.015469    290.75448 
   59730   0.96002713    -9410.591    -4.763282    295.16322 
   59740   0.95999826   -9412.6356   -1.3025898    296.79804 
   59750   0.95997243   -9414.6422    36.368695    297.76498 
   59760   0.95983959   -9416.6799   0.18523934     299.8609 
   59770   0.95966536   -9418.8103    47.337424    297.89168 
   59780    0.9593033   -9420.9666    139.16161    290.37471 
   59790    0.9585076   -9423.0832    35.968862    288.16123 
   59800   0.95750427   -9424.6437   -40.261236    289.52171 
   59810   0.95655846    -9425.696    -73.87249    288.96187 
   59820   0.95585341    -9426.331   -207.68113    290.38942 
   59830   0.95581954   -9426.3318    -292.0288     294.2318 
   59840    0.9567379   -9426.4778   -160.53567     298.5184 
   59850   0.95822719   -9427.1098    147.66463    294.88727 
   59860   0.95938681   -9428.1659    220.37159    294.39048 
   59870   0.95986755   -9428.8805    166.71523    291.18948 
   59880   0.95984731   -9429.4302   -32.775778    298.25919 
   59890   0.95981195   -9429.5259    46.027681    295.42457 
   59900    0.9596795   -9429.7656    49.272908     293.1235 
   59910   0.95937384   -9429.8779    11.557146    295.39367 
   59920   0.95897667   -9429.7666    43.288019    290.83953 
   59930   0.95846243   -9429.4968   -73.657531    291.51423 
   59940    0.9581448    -9428.659   -138.49528    293.80624 
   59950   0.95826181   -9427.7637   -139.35501    300.90899 
   59960   0.95879686   -9427.0408    29.107838    301.66015 
   59970   0.95930543   -9426.6295    144.79745    295.18429 
   59980   0.95942643   -9426.2764    55.505736    296.19404 
   59990   0.95934903    -9425.703   -53.608508    300.10027 
   60000    0.9594103   -9424.9567   -75.895417    306.54007 
   60010    0.9596681   -9424.1089    98.441686    299.95751 
   60020   0.95969418   -9423.9266    54.093474    299.19897 
   60030     0.959513   -9423.4888    20.486692      297.702 
   60040   0.95925593   -9423.0245   -18.267213    298.50488 
   60050   0.95902437   -9422.3984   -31.529212    300.15713 
   60060   0.95887509   -9421.7955    26.844212    296.37195 
   60070    0.9586565   -9421.1427  -0.07577281    296.52698 
   60080   0.95842217   -9420.1326   -29.567208    294.88511 
   60090   0.95827545   -9418.9969   -35.214746    296.22442 
   60100    0.9582015   -9417.7951    44.632099    297.18994 
   60110    0.9579927   -9416.6602    57.566699    295.23338 
   60120    0.9576167   -9415.0361   -33.275738    295.67136 
   60130   0.95730922   -9412.9953   -52.388393    295.54347 
   60140   0.95716945    -9410.586   -49.907578    292.70698 
   60150   0.95720984   -9407.8053   -88.120211    296.78019 
   60160   0.95753095    -9404.684   -71.625999    299.85933 
   60170   0.95810078   -9401.5267    4.6098764    298.90892 
   60180   0.95871323   -9398.2319    60.649094    294.89071 
   60190   0.95922565   -9394.8042   -56.592876    301.50197 
   60200   0.95987392   -9390.7693    65.230132     299.1343 
   60210   0.96039809   -9386.9701     94.19842    296.95222 
   60220   0.96068176   -9382.9751   -77.673489    306.93905 
   60230   0.96114066   -9378.7453    8.2183539    306.94459 
   60240    0.9616386   -9375.0835    86.771254    309.03309 
   60250   0.96184357   -9371.6464     219.6575    302.20695 
   60260   0.96139554   -9368.6862    72.408146    300.65783 
   60270   0.96064686   -9365.2642   -92.222317    303.15045 
   60280   0.96008621   -9361.7159    5.1591493    299.62663 
   60290   0.95952683   -9358.4221   -10.531509    299.46581 
   60300   0.95899438   -9354.8682   -158.32758    305.69033 
   60310    0.9589016   -9351.3969   -91.133198    304.23146 
   60320   0.95914797   -9348.2864   -53.280328    304.92709 
   60330   0.95960722   -9345.5479   -57.612538    306.92985 
   60340   0.96027076   -9343.0558    45.623895    303.58975 
   60350   0.96084996   -9340.9403    125.58493    298.93718 
   60360   0.96113122   -9339.0787   -33.358834    302.38238 
   60370   0.96148303   -9336.7971   -97.213291    307.81543 
   60380   0.96213196   -9334.9057    30.896747    305.01609 
   60390   0.96277425   -9333.4416    44.581249    305.35372 
   60400   0.96331626   -9332.3432   -2.2806133    310.53231 
   60410   0.96385607   -9331.3885    63.747011     306.5966 
   60420   0.96427693    -9330.735    21.519512    304.37389 
   60430   0.96463748   -9330.2785    34.300383    306.32477 
   60440   0.96484848   -9330.1679    165.51209    305.30025 
   60450   0.96455031   -9330.4693    132.67265    304.31991 
   60460    0.9637985   -9331.0143   -32.883035    305.23092 
   60470   0.96308174   -9331.2924   -112.25112    306.94015 
   60480   0.96264812   -9331.7832   -16.002756    306.97839 
   60490   0.96223649   -9332.9683    130.45757     304.0955 
   60500   0.96138155   -9334.8429    156.93434    299.12078 
   60510   0.96000135   -9336.7345   -79.190472    303.89076 
   60520   0.95873228   -9337.9656    -162.5267    308.61853 
   60530   0.95788638   -9339.6398    1.4082661    302.27973 
   60540   0.95704642    -9341.724    61.581562    297.32357 
   60550   0.95597048   -9344.2412   -38.462943    301.97504 
   60560   0.95489909   -9346.2485   -46.216888    297.52321 
   60570   0.95399002   -9348.4326   -162.08804    294.33334 
   60580   0.95360276   -9350.0208   -302.54429    302.60094 
   60590   0.95411674   -9351.8984   -91.973496    301.38097 
   60600   0.95503255   -9354.4912     102.2676    295.28343 
   60610    0.9557129   -9357.4466    100.32446    298.79259 
   60620   0.95602786     -9360.15    171.96956    294.40374 
   60630   0.95587387   -9362.8809   -3.1957043     292.5226 
   60640   0.95568864   -9365.1456   -159.55578    297.57069 
   60650   0.95599321    -9367.335   -135.08166     298.1549 
   60660   0.95675919   -9369.8283   -14.696552    297.85843 
   60670    0.9576511   -9372.5588    78.907202    296.43278 
   60680   0.95835716   -9375.5615    72.736492    299.60012 
   60690   0.95885514   -9378.3889    43.955931    295.95106 
   60700   0.95927803   -9381.2158   -84.646533    300.61341 
   60710   0.95995793   -9384.0728   -50.543422    303.21288 
   60720   0.96085816   -9387.2542    4.4746974    299.76887 
   60730   0.96188214   -9390.5155   -138.69649    303.04336 
   60740   0.96340278   -9394.0926   -166.85396    311.85776 
   60750   0.96547557    -9398.546     168.8727    311.58672 
   60760   0.96713036   -9403.7348     410.0885    305.40043 
   60770   0.96756842   -9409.4079    302.73837    301.69917 
   60780   0.96700671   -9414.7988    64.697375     300.6037 
   60790   0.96614712   -9419.5969   -51.538015     299.4881 
   60800   0.96538447   -9424.1186   -26.334072    296.88409 
   60810   0.96464747   -9428.7189     65.99556    295.04409 
   60820   0.96364584   -9433.3805    123.83749    288.40622 
   60830   0.96222762   -9437.6479   -63.939039    292.53772 
   60840   0.96088537   -9440.8491   -153.59256    292.68068 
   60850   0.95999516   -9443.3566   -159.63573    289.56111 
   60860   0.95963097   -9445.7196   -182.10068    294.17338 
   60870   0.95983409   -9447.8483    -131.7841    300.27041 
   60880   0.96052201   -9449.9305   -103.91188    303.56276 
   60890   0.96161535   -9452.1713   -42.140634     302.2085 
   60900   0.96291936   -9454.4716    86.540462    299.96394 
   60910   0.96402513   -9457.0272    168.94176    302.34184 
   60920   0.96454593    -9459.488    320.81494    298.15744 
   60930   0.96408082   -9462.2747     181.2059    295.16122 
   60940   0.96295744   -9464.3755   -33.043828    296.51302 
   60950   0.96180744   -9465.9717   -22.939802    292.28363 
   60960   0.96071841   -9467.2316   -93.507852    291.36411 
   60970   0.95988893   -9467.8642   -162.52739    291.02912 
   60980    0.9595559   -9468.0067   -121.08231     289.6106 
   60990   0.95963488   -9468.2618   -55.384655    288.82226 
   61000   0.95992799    -9468.179    -36.67118    291.77849 
   61010   0.96034778   -9468.0234    1.1865419    294.50385 
   61020   0.96080291   -9467.9553   -47.794145     301.9172 
   61030   0.96143058   -9467.7273   -48.297623    302.59467 
   61040   0.96227284   -9467.7087   -20.460972    303.65879 
   61050   0.96318086   -9468.1565    183.61262     296.2498 
   61060   0.96359079   -9468.8571    186.69242    292.27231 
   61070   0.96344437   -9469.1137   -67.360261    299.43266 
   61080   0.96343845   -9468.8688   -115.92149    298.70961 
   61090   0.96382893   -9468.8135    -73.64376    301.69381 
   61100   0.96443871   -9468.9425    97.661935    297.41614 
   61110   0.96484272   -9469.1527    51.654223    296.44526 
   61120   0.96509307    -9469.406   -17.758926    301.83249 
   61130   0.96535316   -9469.6359    73.285059    300.96718 
   61140   0.96540023   -9470.1929    116.14411    297.60746 
   61150   0.96504382   -9470.7427    121.53113    292.83452 
   61160   0.96429353   -9471.0507    2.9275071    289.28215 
   61170   0.96351007   -9470.8002   -142.36122    291.22666 
   61180   0.96311014   -9470.0488   -95.377882    292.40369 
   61190   0.96302288   -9469.5794   -41.769576    297.27351 
   61200   0.96300843   -9468.8688    140.60319    289.23189 
   61210   0.96262755   -9468.5971    44.332243    290.00553 
   61220   0.96202372   -9467.5591    14.253188    285.87341 
   61230   0.96140394   -9466.3114   -135.47771     289.6576 
   61240   0.96115214   -9464.3123   -143.60666    293.26386 
   61250   0.96141119   -9462.1916   -157.95134    294.04914 
   61260   0.96220131   -9460.2293   -60.444386    296.10788 
   61270   0.96318656   -9458.5205    240.98057    289.61164 
   61280   0.96351072   -9457.2265    222.55841    291.22585 
   61290   0.96308413   -9455.4276    78.347756    291.64395 
   61300   0.96237867   -9452.9508   -151.40912    293.75261 
   61310   0.96210281   -9449.9641   -240.86998    302.53463 
   61320   0.96253066   -9447.0036    10.734226    301.57812 
   61330   0.96303084   -9444.6302    139.52925    296.38499 
   61340    0.9631369   -9442.5408    67.165014    298.23256 
   61350    0.9629744   -9440.2662    54.325034    298.31229 
   61360   0.96261642   -9438.1245    36.251567    299.14269 
   61370   0.96211134   -9435.9381    11.475674    299.59919 
   61380   0.96150463   -9433.7171    69.521556    293.23794 
   61390   0.96071684   -9431.6638   -61.940702    289.13748 
   61400   0.96009887   -9429.0965   -221.77255    298.28801 
   61410   0.96007953   -9426.0847    10.781114    294.13781 
   61420   0.96008928   -9423.7332    125.02286    294.31713 
   61430   0.95969061   -9421.3293    64.898075    297.87903 
   61440   0.95904822   -9418.6461   -96.500383    302.31235 
   61450   0.95863155    -9415.935   -93.790324    301.84183 
   61460    0.9585062   -9413.3065    -18.09096    296.85766 
   61470    0.9584881   -9410.9812   -74.047685    302.08434 
   61480   0.95865792     -9408.55    48.785852    300.43471 
   61490   0.95871054   -9406.6171    113.85919     296.1904 
   61500   0.95841232   -9404.8486    5.5285694    300.14195 
   61510   0.95803127   -9402.8203   -28.440035    302.60255 
   61520   0.95770828   -9400.9634    18.454661    299.67448 
   61530    0.9573198   -9399.3165    57.516531    295.91309 
   61540   0.95674503   -9397.7165    10.655064    293.71045 
   61550     0.956131   -9395.8563    -159.5818    297.57553 
   61560   0.95599547   -9393.6361   -233.90072    304.74784 
   61570   0.95653302   -9391.7047    76.934095    296.55973 
   61580   0.95700882   -9390.4772    39.070015    295.73589 
   61590   0.95739699   -9388.8611   -136.10553    306.41992 
   61600      0.95817   -9387.4763   -8.4792848    308.26363 
   61610   0.95901716   -9386.7736    186.01417    305.94598 
   61620   0.95932115    -9386.604    239.32335     299.3214 
   61630   0.95888567   -9386.5697    67.779713    297.43042 
   61640   0.95814431   -9386.1911   -53.121794    299.05167 
   61650   0.95751623   -9385.4586     -120.092    299.50421 
   61660   0.95730036   -9384.4508    -247.4407     301.3353 
   61670   0.95789518   -9383.3967   -222.47022    306.25224 
   61680   0.95923744    -9383.264    54.006071    304.67801 
   61690   0.96051385   -9383.8361    261.25251    303.10594 
   61700   0.96100652   -9384.7257    291.65627    296.79871 
   61710   0.96059961   -9385.6493    73.608729    296.77948 
   61720   0.95988153   -9385.8397   -107.33221    301.56906 
   61730   0.95945586   -9385.9251   -197.83336     312.5556 
   61740   0.95953994   -9386.2735     71.44063    305.47686 
   61750   0.95950179   -9387.5051    101.91508    300.76714 
   61760   0.95911891   -9388.5867    64.847399    296.96684 
   61770   0.95851028   -9389.6091   -2.7736175    296.90694 
   61780   0.95785714   -9390.4488   -80.603918    302.72232 
   61790   0.95742172   -9390.9968   -110.68095    303.26091 
   61800   0.95733042   -9391.5226   -64.610598    301.73926 
   61810   0.95746501   -9392.2898  -0.94021213    296.87927 
   61820   0.95769969   -9393.0944   -147.48564     306.1728 
   61830   0.95831867   -9393.6924     74.85588    300.60679 
   61840   0.95880364   -9395.0221    152.68154    300.84732 
   61850   0.95877419   -9396.4013    171.18078    299.08825 
   61860   0.95822657    -9397.405    -23.63245    293.36143 
   61870   0.95776464     -9397.86   -332.67269    304.76977 
   61880   0.95823495   -9398.0154   -95.707967    299.96719 
   61890   0.95918028   -9398.8403   -26.834598     300.6634 
   61900   0.96028219   -9399.6684   -8.2945069     304.9926 
   61910   0.96143601   -9400.6773    152.33227    300.15006 
   61920   0.96219963   -9401.9641    143.81954    300.04327 
   61930   0.96247644   -9403.2084    143.01201    302.10628 
   61940   0.96229686   -9404.3096    99.139967    296.03412 
   61950   0.96181796   -9405.1916   -106.27071    301.86343 
   61960   0.96154941   -9405.7197    29.616229    297.63451 
   61970   0.96122599   -9406.5166    48.286262    295.91099 
   61980    0.9607456   -9407.4034   -69.043709    304.42257 
   61990    0.9603647    -9408.004    56.414244    300.39412 
   62000   0.95984409   -9408.9128    13.055642    294.60622 
   62010   0.95928829   -9409.3678   -153.44605    295.49799 
   62020   0.95915905   -9409.4544   -91.339032    292.38564 
   62030   0.95936211   -9409.5314   -32.562273    290.57723 
   62040   0.95971477   -9409.5859   -21.001189    294.91603 
   62050   0.96011807   -9409.7577    87.726266    297.26617 
   62060   0.96025801   -9410.1514    145.00532    298.26381 
   62070   0.95988977    -9410.679    185.67331    297.04466 
   62080   0.95887022   -9411.3352    129.70815    290.69678 
   62090   0.95742453   -9411.4562    -193.4002    293.68361 
   62100   0.95647706   -9410.4358   -312.35708    297.27113 
   62110   0.95651145   -9409.4309    -208.9208    301.33255 
   62120   0.95724773   -9408.9131    8.9925868    298.60908 
   62130   0.95804926   -9408.7525    100.39889    294.96037 
   62140    0.9586247    -9408.612   -39.902825    298.01665 
   62150   0.95932784   -9408.1205   -55.041577    301.42432 
   62160   0.96022993   -9407.8743    103.19289    300.37964 
   62170   0.96084724   -9408.0332     205.3636    298.06468 
   62180   0.96082253   -9408.3284    157.72252    297.76303 
   62190    0.9602672    -9408.388    18.003799    297.52944 
   62200   0.95958191   -9408.2076   -9.7499371    292.18972 
   62210   0.95892387   -9407.8453   -95.927533    294.74688 
   62220   0.95852011   -9407.0752   -108.47525    297.58612 
   62230   0.95847876   -9406.4038   -122.22268     301.4694 
   62240   0.95881515   -9405.6738   -38.686555    298.48776 
   62250   0.95936641   -9405.3582   -56.858006    296.27308 
   62260   0.96012721   -9404.9657   -2.9259048    299.42468 
   62270   0.96089358   -9404.6843    226.05956    292.14936 
   62280    0.9610251   -9404.6262    202.08077    289.97717 
   62290    0.9604745    -9404.246    54.928934    291.50176 
   62300   0.95971295    -9403.264   -194.33758     302.0543 
   62310   0.95943862   -9401.7265   -110.34487    304.80584 
   62320   0.95955062   -9400.5461    2.4579251    301.53355 
   62330   0.95970689    -9399.969   -24.137208    308.11435 
   62340   0.95986907   -9399.5392    155.20994    303.79169 
   62350   0.95956835   -9399.6662    139.76876    301.91147 
   62360   0.95874916   -9399.9082    85.562392    299.05463 
   62370   0.95760278   -9400.2386   -5.9941278    294.22886 
   62380    0.9564272   -9400.0573   -143.05731    293.08505 
   62390   0.95564861   -9399.2471   -197.96662    300.15806 
   62400   0.95543359   -9398.3004   -43.611726    296.87996 
   62410   0.95547008   -9397.7627    -116.0373    301.12006 
   62420   0.95581389   -9396.9418    28.747492    300.64314 
   62430   0.95612287   -9396.7965    146.58479    295.69786 
   62440   0.95598919   -9396.6741    53.570873    299.27992 
   62450   0.95564493   -9396.2075   -31.781863    299.47597 
   62460   0.95536616   -9395.5645   -66.580563    295.36527 
   62470   0.95534459   -9394.7551   -189.40738    300.41927 
   62480    0.9559072   -9393.7637    -127.2291    306.23187 
   62490   0.95690746   -9393.3888    108.51592    301.77027 
   62500   0.95767676   -9393.4005    177.91262    297.84247 
   62510   0.95790392    -9393.636    152.79683    296.68579 
   62520    0.9576209   -9393.5982    45.444877    293.40852 
   62530   0.95719582   -9393.0471   -152.66458    294.73213 
   62540    0.9572044   -9391.9505   -149.46851    298.52223 
   62550   0.95770239   -9391.1754   -17.601088    301.89992 
   62560   0.95828034   -9390.5888    162.35432    296.81642 
   62570   0.95841784   -9390.3256    162.31253    295.21931 
   62580   0.95799981    -9389.778    99.324511    291.67504 
   62590   0.95726484   -9388.8098   -118.79137    295.25545 
   62600   0.95679482   -9387.1206    -91.52896    295.15369 
   62610    0.9566119    -9385.422   -13.981398    297.23615 
   62620   0.95645068   -9383.8393     73.77486    296.21631 
   62630   0.95604555   -9382.3611    83.487215    296.12533 
   62640   0.95532169   -9380.6688    49.785621    290.90246 
   62650   0.95446647   -9378.3193   -209.93898    295.48741 
   62660   0.95418908   -9375.1503   -219.49191    300.60373 
   62670   0.95458481    -9372.225    32.308085     298.2921 
   62680   0.95496966   -9369.7013    104.26133    299.23322 
   62690   0.95506634    -9366.965   -6.2531078    303.12433 
   62700   0.95514603   -9363.9695   -28.642169    302.34535 
   62710   0.95533603   -9361.0739   -21.873646      301.285 
   62720   0.95559341   -9358.2753    62.197144    298.27683 
   62730   0.95569115   -9355.6357    44.668958    300.33038 
   62740     0.955624   -9352.8935    41.496578    300.86897 
   62750   0.95542095    -9350.092    5.6866364    300.81109 
   62760   0.95518662   -9347.2309    -38.31212    296.20882 
   62770   0.95509988    -9344.238   -119.87466    298.50147 
   62780   0.95534953   -9341.1652    4.6526186    298.17178 
   62790   0.95564275   -9338.2362    51.836086    295.90659 
   62800   0.95583816   -9335.2483   -76.272142    300.81316 
   62810   0.95628164     -9332.04    -121.7673    304.61553 
   62820   0.95711481   -9329.0645    28.764455    306.52674 
   62830   0.95789512   -9326.5295    227.11472    299.64635 
   62840   0.95806941    -9324.509    44.033825    304.57319 
   62850   0.95800991   -9322.0634    22.944845    305.72137 
   62860    0.9578897   -9320.0415     -5.44994    306.75306 
   62870   0.95776321   -9318.0112    25.191903    302.62117 
   62880   0.95755841   -9316.1262    45.193078    294.12123 
   62890   0.95724564   -9314.4418   -122.51246    301.27626 
   62900   0.95723606   -9312.3636     -43.9737    301.91616 
   62910   0.95740819   -9310.6013    57.786842    299.23999 
   62920   0.95742279   -9309.1447    59.119089    298.64023 
   62930   0.95722831    -9307.537     6.026091    299.01201 
   62940   0.95702409   -9305.8225   -100.87078    297.48148 
   62950   0.95716798   -9303.8063   -197.26587    305.91634 
   62960   0.95787288   -9302.0853    65.345583    307.86762 
   62970   0.95840959   -9301.1145    344.21146    297.72012 
   62980   0.95796997   -9300.7436    93.277394    303.33727 
   62990   0.95709153   -9299.7714    -78.21514    308.05606 
   63000   0.95633846   -9298.8814    27.980591     300.9657 
   63010   0.95549034   -9298.4072    43.379108    298.83096 
   63020    0.9544727   -9297.8766   -84.743057    299.58479 
   63030   0.95370818   -9296.6679   -274.37452    303.84342 
   63040    0.9537703    -9295.367   -199.20111    304.92777 
   63050   0.95450096   -9294.9055    26.042403    303.73238 
   63060   0.95525834   -9294.7389    116.98846     300.5411 
   63070   0.95573107   -9294.9592   -32.831449    310.67093 
   63080   0.95621469   -9295.3332    98.283697    309.91676 
   63090   0.95642215   -9296.2735    210.86083    299.36039 
   63100   0.95603082   -9297.4832   -21.127855      305.603 
   63110   0.95560105   -9298.2685   -80.234617    303.68147 
   63120   0.95544037   -9299.3463   -128.97005    308.47474 
   63130    0.9556062   -9300.8444    77.753774    307.33805 
   63140   0.95558063   -9303.0534    149.79658    300.83487 
   63150   0.95508134   -9305.6842    35.279812    301.15977 
   63160   0.95440145   -9308.0146   -37.426987    295.78036 
   63170   0.95386977   -9310.3403   -261.23309    304.40603 
   63180   0.95408092   -9312.6239   -120.19401    300.46474 
   63190   0.95476265   -9315.6597     60.14328    296.21277 
   63200   0.95530635   -9319.1954    125.25693    298.14666 
   63210   0.95546739   -9322.8402    67.515844    297.30221 
   63220   0.95541291   -9326.5415   -50.393158    301.06544 
   63230   0.95545282   -9330.1355     29.48501    296.60983 
   63240   0.95546864   -9334.0243    -28.32854    295.80554 
   63250   0.95556895   -9337.9574   -47.926188      297.829 
   63260   0.95584459   -9342.0962   -55.570261    300.29388 
   63270   0.95633161    -9346.513   -46.731802    300.52903 
   63280   0.95700733   -9351.2578    10.950296    300.40826 
   63290   0.95767069   -9356.0811     125.6683    296.86339 
   63300   0.95800475    -9361.016    57.435025     295.3932 
   63310   0.95816615   -9365.9085   -107.12422    304.86026 
   63320   0.95859862   -9370.7892   -13.313119     307.5403 
   63330   0.95913722   -9376.0021    56.642757    304.38245 
   63340   0.95955979   -9381.3473    23.034446    303.42681 
   63350   0.95990151   -9386.6859    83.995447    306.31085 
   63360   0.95990119   -9392.2208     323.9957    297.81631 
   63370   0.95890738   -9398.0256    208.65551    288.51902 
   63380   0.95718518   -9402.6023   -154.82223    289.67826 
   63390   0.95582284   -9405.8735   -320.18123    296.08239 
   63400   0.95540029   -9408.3932   -230.58403    296.45856 
   63410   0.95581302   -9410.9782    -242.4656     300.7148 
   63420     0.957017   -9413.5019   -38.809717    300.17228 
   63430   0.95845084   -9416.2725    191.92984    295.09151 
   63440   0.95938854   -9419.0098    160.27891    296.70342 
   63450   0.95983134   -9421.3644    21.067102     301.7728 
   63460   0.96017464   -9423.4102    18.400162    302.81417 
   63470   0.96042541   -9425.5551    161.71354     298.7827 
   63480   0.96018323    -9427.939     152.1791    297.91606 
   63490   0.95938262   -9430.1926    103.69818    292.11585 
   63500   0.95826345   -9431.8043   -136.79676    288.77842 
   63510   0.95754079   -9432.1419   -322.03435    291.10111 
   63520   0.95781253   -9432.2496   -222.88111    295.54625 
   63530   0.95880941    -9432.598    94.284977    289.68942 
   63540   0.95968803   -9433.3176     47.50637    295.35561 
   63550   0.96037816   -9433.6779    100.13699    296.35248 
   63560   0.96078897   -9434.2648    128.49066    293.64966 
   63570   0.96080608   -9434.5586    74.190153    293.82316 
   63580    0.9605636   -9434.4978    22.224654    288.68861 
   63590   0.96027079   -9434.2313   -137.17579    293.75538 
   63600   0.96032392   -9433.4181   -71.839518    297.11767 
   63610   0.96062109   -9432.8953    30.633837    298.87174 
   63620   0.96083463   -9432.6434    121.96785    295.53395 
   63630   0.96071539   -9432.4791    21.490455    295.01233 
   63640    0.9604948   -9431.9992   -36.547538     294.5714 
   63650   0.96034392   -9431.2338    42.052175     287.2849 
   63660   0.96011645   -9430.5017   -54.388206    293.54044 
   63670   0.95997434   -9429.3192    41.701818    293.03577 
   63680   0.95973954   -9428.2442    29.396437    292.14255 
   63690   0.95938152   -9427.0763   -23.811426    298.83462 
   63700   0.95903345   -9425.5605    22.831587    295.99003 
   63710   0.95862929   -9424.1704   -54.169254    298.44339 
   63720   0.95835049   -9422.5505   -75.064747    301.00202 
   63730   0.95830896   -9420.9977   -58.462171    300.58008 
   63740   0.95847148   -9419.7271   -3.5540866    298.08562 
   63750    0.9586743   -9418.5257    27.931828    299.42296 
   63760   0.95875558   -9417.3317    123.48937    296.43153 
   63770    0.9584839   -9416.4992    28.058978    299.22749 
   63780   0.95806283   -9415.3116    5.8399467    295.95053 
   63790    0.9576572   -9413.9835   -71.368265    291.05369 
   63800   0.95748803   -9412.2092   -179.64057    296.41007 
   63810   0.95786599   -9410.2421   -85.203614    295.87286 
   63820    0.9585815   -9408.4781   -11.850703    299.70885 
   63830   0.95934331   -9406.9909     138.4934    298.34769 
   63840   0.95973068   -9405.6134    113.13482    297.77289 
   63850   0.95976574   -9403.9635   -7.9626613     302.6833 
   63860   0.95976983   -9402.2951    57.887903    296.83772 
   63870   0.95965777   -9400.8651   -31.411277    296.43383 
   63880   0.95960282   -9398.9471   -48.295275    299.35283 
   63890   0.95969252   -9397.2039   -22.680445    304.21801 
   63900   0.95982733   -9395.5289    85.058961    299.67237 
   63910   0.95977177   -9394.1787   -23.147147    298.23994 
   63920   0.95972916   -9392.3829    5.1048953    293.17194 
   63930   0.95969675   -9390.5957    35.767412    288.03162 
   63940   0.95956022   -9388.6186    -23.22255    290.33477 
   63950   0.95950089   -9386.0481   -112.99402    296.62629 
   63960   0.95975572   -9383.1131   -26.746719    302.22821 
   63970   0.96005075   -9380.6918    227.19615    296.88775 
   63980   0.95969529   -9378.5348    135.29333    298.47876 
   63990   0.95884428   -9375.8634   -10.059597    295.82892 
   64000   0.95801201   -9372.6471    -215.9844     297.7367 
   64010   0.95781061    -9368.942   -227.71588    303.82616 
   64020   0.95833616    -9365.551   -55.431367    307.96046 
   64030   0.95907993   -9362.5452     155.7287    304.43643 
   64040   0.95938769   -9360.0911    203.43514    302.51939 
   64050   0.95903297    -9357.732    152.46029    299.50688 
   64060    0.9581664   -9355.0677   -15.558226    298.21073 
   64070   0.95731126   -9352.0073   -219.22421    298.75882 
   64080   0.95710938   -9348.3746   -238.59652    303.94888 
   64090   0.95764634   -9344.9489    38.861512    299.35083 
   64100   0.95818317   -9342.0924    150.10763    292.24573 
   64110   0.95828622   -9339.2697    60.979663    296.48334 
   64120   0.95813702   -9335.9062     31.18699    296.88729 
   64130   0.95790242   -9332.2964   -117.05788    304.87295 
   64140    0.9579739   -9328.2643    -33.52479    301.55839 
   64150    0.9582246   -9324.5571   -20.101561    300.44138 
   64160   0.95853154   -9320.7626    31.093202    299.74635 
   64170   0.95876705   -9317.2058    82.345763    298.11033 
   64180   0.95877144   -9313.5294    7.0864404    304.06599 
   64190   0.95873023    -9309.766   -20.843098    306.93109 
   64200   0.95870701   -9306.1551     109.1864    301.08059 
   64210   0.95837389   -9303.1672    51.815798     304.6441 
   64220   0.95779934   -9299.9746    10.833211    300.85624 
   64230   0.95720862    -9296.703   -143.25978    304.15694 
   64240   0.95699294    -9293.209   -80.155298    303.97431 
   64250   0.95706663   -9290.2055   -34.365223    308.39807 
   64260   0.95720178   -9287.5728    109.54267     308.8821 
   64270   0.95701174   -9285.5845    129.02652     303.6207 
   64280   0.95644132   -9283.5861    -114.1771    312.88491 
   64290   0.95608366   -9281.3819    4.2102442    307.09593 
   64300   0.95579156   -9279.9745   -63.033492    308.39414 
   64310   0.95565552   -9278.5805     -64.7241    308.89656 
   64320   0.95571829    -9277.615    52.937839    303.88234 
   64330   0.95565127   -9277.1012    44.492814    305.71093 
   64340   0.95542746   -9276.6685    26.352433    302.18454 
   64350   0.95510913   -9276.3241   -32.174559    303.83346 
   64360   0.95484858   -9275.9741   -23.943871    305.99661 
   64370    0.9546419   -9276.0623    3.6852653    306.24461 
   64380   0.95438994   -9276.4339    76.225614    304.11421 
   64390   0.95386887    -9277.103    124.35475    300.14059 
   64400   0.95293828   -9278.1291    10.994221    302.52975 
   64410   0.95187068   -9278.8044   -49.383787    297.59512 
   64420   0.95097049   -9279.3648   -230.02847     301.7031 
   64430    0.9507335   -9279.7522   -218.61985    303.51573 
   64440   0.95124871   -9280.5492   -136.07996    307.50747 
   64450   0.95221658   -9282.2733    114.25606    308.91125 
   64460   0.95288373   -9285.1432    275.74179    304.55828 
   64470   0.95271283   -9288.8252     137.8868    305.10031 
   64480   0.95205475   -9292.6483   -60.399417    304.26858 
   64490   0.95154078   -9296.7786   -167.11138    306.95767 
   64500   0.95150256   -9301.6679   -41.899887    305.40895 
   64510   0.95163153   -9307.6205    61.502279    301.86432 
   64520   0.95159428   -9314.6445    32.961534     300.3887 
   64530   0.95142478   -9321.9058    5.7803891    296.03282 
   64540   0.95126787   -9329.5118   -104.63272    298.03453 
   64550   0.95143447   -9336.9982   -115.73134    298.38306 
   64560   0.95202342   -9344.6213   -98.482636    299.33882 
   64570   0.95296088   -9352.3365   -0.1112453    301.20835 
   64580   0.95396386   -9359.8425    92.311172    299.26675 
   64590   0.95474311    -9367.218    94.115058    299.85032 
   64600   0.95521755   -9373.7353    155.26482     291.1459 
   64610   0.95529959   -9379.5176   -63.675522    295.92708 
   64620   0.95552198   -9384.1851   -110.79325    298.30629 
   64630    0.9561334   -9388.5381   -69.983551    299.73357 
   64640   0.95699474   -9392.6054    43.631172    301.85757 
   64650   0.95776252   -9396.5334    200.92029    292.67353 
   64660   0.95801946   -9400.1262    4.2337958    294.31578 
   64670   0.95823804   -9402.9525   -151.63207    300.66184 
   64680   0.95888545   -9405.2618    35.897343    293.13799 
   64690   0.95957375   -9407.7413   -23.755786    298.94347 
   64700    0.9603122   -9409.9625    38.459599    302.84988 
   64710   0.96097895   -9412.3358    126.06668    296.71042 
   64720   0.96133076   -9414.5121   -6.6570681    301.02582 
   64730   0.96167488   -9416.4849   -56.655103    307.92944 
   64740   0.96216801   -9418.7505    71.067086    307.67379 
   64750   0.96248882   -9421.4616    123.78745    301.21521 
   64760   0.96246248   -9424.2342    4.8098363    302.80261 
   64770   0.96231515   -9426.9114    159.82438    297.57626 
   64780   0.96166052   -9429.7754    182.33846    291.01441 
   64790   0.96041782   -9432.4259   -115.71436    296.93697 
   64800   0.95940626    -9434.235   -188.41792    298.07299 
   64810   0.95895138    -9435.741   -96.793603    294.21484 
   64820   0.95883136   -9437.6339   -54.138811    297.31957 
   64830   0.95883693   -9439.4334    84.895215    293.45145 
   64840   0.95861987    -9441.368     86.01287    288.95477 
   64850   0.95814472   -9442.8515   -86.182943    293.84997 
   64860   0.95786986   -9443.8343   -115.79588    295.92984 
   64870   0.95797611   -9444.8628   -59.666111    294.63681 
   64880   0.95828231   -9445.7516    52.793115    292.10237 
   64890    0.9584786   -9446.9103   -10.391259    297.43033 
   64900   0.95867976    -9447.817   -57.012425    304.39536 
   64910    0.9590497   -9448.7326    37.909333    300.37323 
   64920   0.95933988   -9449.8906    139.47863    293.81702 
   64930   0.95921256   -9451.3603    86.809342    296.41418 
   64940   0.95877603   -9452.5441   -75.480728    302.80733 
   64950   0.95853481   -9453.3514   -150.68337    300.70718 
   64960   0.95877587   -9454.2544   -59.349857    296.07708 
   64970   0.95922232   -9455.5828    149.51571    294.11192 
   64980   0.95921203    -9457.281    235.60887    290.20664 
   64990   0.95849089   -9458.3707   -9.1897239    285.39846 
   65000   0.95776854   -9458.6083   -295.48072     288.8308 
   65010   0.95792416   -9458.1928   -244.14866    293.45553 
   65020   0.95888292   -9458.3117    46.669357    294.64189 
   65030   0.95976735   -9458.6455    272.35539    289.29846 
   65040   0.95986844   -9459.1154    133.51139    294.36667 
   65050   0.95944185   -9459.0648    50.487433    293.74367 
   65060   0.95886364    -9458.693   -128.45089    296.36172 
   65070   0.95861564   -9457.7668   -114.83571    298.60868 
   65080   0.95873363   -9457.1244   -22.319409    299.32771 
   65090   0.95893515   -9456.7666    71.690359    297.13159 
   65100   0.95893321   -9456.3534    113.55668    292.15942 
   65110   0.95862166   -9455.7188   -68.616813    294.81234 
   65120   0.95846333     -9454.63    -101.1431    297.81032 
   65130   0.95859072   -9453.6525    71.813117     293.4028 
   65140   0.95852756   -9452.9851    111.83096    292.48596 
   65150    0.9580937   -9452.1708    31.011213    293.90435 
   65160   0.95751144   -9450.8779   -55.032382    294.33685 
   65170   0.95705098   -9449.0896   -33.657961    287.55143 
   65180   0.95676111    -9447.044    -172.2877    290.22745 
   65190   0.95699722   -9444.3498   -174.23381    295.24562 
   65200   0.95782569    -9441.619   -44.500312    293.95688 
   65210   0.95891343   -9439.1395   -52.830072    303.01862 
   65220   0.96018878   -9436.6236    91.147738    301.34181 
   65230   0.96127654   -9434.4551    148.70922    301.73558 
   65240   0.96192716   -9432.2433     153.5542    300.31836 
   65250   0.96212447   -9430.0338    53.554309    298.08503 
   65260   0.96210528   -9427.5404    48.257654    297.84947 
   65270    0.9619076   -9425.0598     88.10099    294.44153 
   65280   0.96146604    -9422.374    -99.92063    300.40266 
   65290   0.96127156   -9419.2693    -129.5714    305.75145 
   65300   0.96145727   -9416.3568    36.973033    300.79648 
   65310   0.96159075   -9413.8811    70.446806    298.16664 
   65320   0.96154403   -9411.3757   -51.219807     301.4719 
   65330   0.96160781   -9408.4986   -21.779784    300.57071 
   65340   0.96176988   -9405.9213    20.951184    300.17434 
   65350   0.96188156   -9403.3862    22.503952    301.88487 
   65360   0.96189626   -9400.9509    80.699711    296.83513 
   65370   0.96169902   -9398.5258   -13.557203     293.5487 
   65380   0.96154336   -9395.6513   -152.61805    300.12529 
   65390   0.96183517    -9392.566    -129.6194    307.28942 
   65400   0.96256215   -9389.8392     48.21468    302.88895 
   65410   0.96323169   -9387.6659    127.77918    297.65861 
   65420   0.96352705   -9385.5953    122.90382    296.70503 
   65430   0.96343234   -9383.2696    30.919963    297.66586 
   65440    0.9632605   -9380.5453   -189.13556    306.53337 
   65450    0.9636254   -9377.7597   -76.535126    307.86857 
   65460   0.96425788   -9375.6934    163.65972    304.56472 
   65470   0.96445194   -9374.2157    102.76053    310.23302 
   65480   0.96423519   -9372.8692    79.260486    311.70027 
   65490   0.96370647   -9372.0579    92.779588    310.68321 
   65500   0.96283191   -9371.5837    107.55947    303.21329 
   65510   0.96158614   -9371.4084    -21.44414    305.11569 
   65520   0.96026785   -9371.1189   -4.5939428    302.88008 
   65530   0.95891427   -9370.9918   -34.181646    299.06977 
   65540   0.95760636   -9370.7019   -61.776696    296.35452 
   65550   0.95646288   -9370.3361   -111.05665    295.52825 
   65560    0.9556588   -9369.5965   -219.30383    304.34937 
   65570   0.95545088   -9368.7131   -37.391807    302.87791 
   65580   0.95542944   -9368.4998    17.368821    301.39129 
   65590    0.9553621   -9368.4126    5.0913854    300.19304 
   65600   0.95527341   -9368.5991    3.4337211     301.6026 
   65610   0.95512807   -9368.8081     94.17342    296.94418 
   65620   0.95471428   -9369.0861    6.8903564    295.88395 
   65630   0.95425305   -9369.0528    -130.4285    296.03915 
   65640   0.95421624   -9368.5206   -217.57052    301.38216 
   65650   0.95482988    -9368.334    9.2605995    302.31295 
   65660   0.95546665   -9368.7186    231.26616    296.46046 
   65670   0.95546683   -9369.4549    79.407388    300.02496 
   65680    0.9551377   -9369.8244    2.3900225    297.10863 
   65690   0.95480119   -9370.0574   -77.714918    298.41799 
   65700   0.95462562   -9370.2391     23.70719    300.09621 
   65710   0.95438999   -9370.6816    72.142319    293.68436 
   65720   0.95400847   -9371.1035   -199.05865    300.77668 
   65730   0.95414492    -9370.924   -88.152582    299.46583 
   65740   0.95464475   -9371.3815   -23.489433    299.37326 
   65750   0.95529094   -9371.9041    -74.08973    303.92083 
   65760   0.95618118   -9372.7292    30.329373    303.30595 
   65770   0.95704824   -9374.0668    78.826925     307.7432 
   65780   0.95764103   -9375.8792    268.71784    302.75672 
   65790   0.95742832   -9378.4906       242.35    299.38965 
   65800   0.95639506   -9381.0819    49.265812    299.58579 
   65810   0.95509723   -9383.3715   -86.516369    296.89228 
   65820   0.95399671   -9385.6269   -144.30214    297.42228 
   65830   0.95327667   -9387.9001   -60.107216    294.65914 
   65840   0.95276016   -9390.2865   -78.881237    295.13304 
   65850   0.95248674   -9392.4609   -127.19131    294.28562 
   65860   0.95262575   -9394.5684   -95.239786    291.86239 
   65870   0.95313623   -9396.6704   -92.153511    291.08402 
   65880   0.95401319   -9398.9592   -124.15907    298.20893 
   65890   0.95529868   -9401.3564    57.450073    297.32359 
   65900   0.95652664   -9404.0828    131.38928    295.98329 
   65910    0.9573621   -9407.0514     203.3681    295.41676 
   65920   0.95760294   -9409.8078    105.35797    292.76567 
   65930   0.95753654   -9412.2325    -144.0836    298.58955 
   65940   0.95783112    -9414.211   -38.571518    294.16869 
   65950   0.95833456   -9416.6399   -22.555208     299.8877 
   65960   0.95884353   -9419.1166    167.73016    296.42774 
   65970   0.95889479   -9422.0821      134.565    295.62321 
   65980   0.95847256   -9424.9054    45.351085     294.6506 
   65990   0.95789667   -9427.2509   -71.400502    289.79762 
   66000   0.95754073   -9428.9992   -191.49589    293.04424 
   66010   0.95777876   -9430.5475   -171.22167    299.84454 
   66020     0.958595   -9432.5009   -49.376992    304.31843 
   66030   0.95961919   -9434.8383    115.15045    301.31483 
   66040   0.96035338   -9437.6461    154.64758    300.23747 
   66050   0.96061765    -9440.391    93.926282    295.15299 
   66060   0.96060079   -9442.8127   -11.633502    290.18322 
   66070    0.9606582   -9445.0052   -159.08368    295.86647 
   66080   0.96117245   -9446.9132   -72.740249    300.17893 
   66090    0.9619218   -9449.3384    181.80333    295.65619 
   66100   0.96214591   -9452.1096    253.74464    290.24426 
   66110   0.96156799   -9454.5792    100.94059    285.34022 
   66120   0.96063504   -9456.2109   -142.69997    284.88587 
   66130    0.9600773   -9457.0773   -216.82391    291.86024 
   66140   0.96012664   -9457.8756    25.717402    287.99222 
   66150   0.96018549   -9458.9425    42.625062    292.70546 
   66160   0.96008301   -9459.6631    36.844296    294.04577 
   66170   0.95987461   -9460.2305   -43.018644    295.21397 
   66180   0.95977926   -9460.4636    -56.25612     294.6885 
   66190   0.95986917   -9460.7101   -13.462591    293.82344 
   66200   0.96004559   -9461.0591   -68.853272    300.86706 
   66210   0.96038915   -9461.2914    64.230418    297.65913 
   66220   0.96057514   -9461.8599    87.068526    294.55661 
   66230    0.9605127   -9462.3537   -6.7078632    296.91964 
   66240   0.96040028   -9462.5652    92.897567    292.95109 
   66250   0.96001811   -9462.9833    56.788965    292.35433 
   66260   0.95937631   -9463.1738    43.495728    294.81589 
   66270   0.95852654   -9463.1917    63.528752    288.18791 
   66280    0.9575011   -9462.8722   -170.21801    289.84391 
   66290   0.95694677   -9461.6036   -244.60851    293.76789 
   66300   0.95714464   -9460.0883   -92.661659    292.74411 
   66310   0.95771815   -9458.9789   -16.587198    296.12841 
   66320   0.95837425   -9457.7837     47.77167    299.09139 
   66330   0.95887132    -9456.762    204.40332    293.04929 
   66340   0.95876507    -9456.051     173.7174    290.55378 
   66350   0.95807599   -9454.7652    19.804225    291.10321 
